LAMMPS data file via write_data, version 20 Nov 2019, timestep = 1400502

1300 atoms
990 atom types
1300 bonds
467 bond types
2000 angles
1430 angle types
2600 dihedrals
1195 dihedral types
0 impropers
4 improper types

-4.4590584452562565e-01 2.4645905844524531e+01 xlo xhi
-4.4590584452562565e-01 2.4645905844524531e+01 ylo yhi
-4.4590584452562565e-01 2.4645905844524531e+01 zlo zhi

Masses

1 1.008
2 4.003
3 6.941
4 9.012
5 10.811
6 12.011
7 14.007
8 15.999
9 18.998
10 20.179
11 22.99
12 24.305
13 26.982
14 28.086
15 30.974
16 32.065
17 35.453
18 39.948
19 20.179
20 79.904
21 126.905
22 12.011
23 12.011
24 12.011
25 12.011
26 12.011
27 12.011
28 1.008
29 12.011
30 12.011
31 12.011
32 12.011
33 12.011
34 12.011
35 12.011
36 12.011
37 12.011
38 12.011
39 12.011
40 12.011
41 12.011
42 12.011
43 12.011
44 12.011
45 15.999
46 1.008
47 12.011
48 12.011
49 32.065
50 32.065
51 32.065
52 32.065
53 1.008
54 1.008
55 12.011
56 12.011
57 12.011
58 12.011
59 12.011
60 12.011
61 14.007
62 12.011
63 12.011
64 1
65 4.003
66 20.179
67 39.948
68 83.798
69 131.293
70 12.011
71 12.011
72 15.999
73 12.011
74 12.011
75 12.011
76 35.453
77 12.011
78 35.453
79 12.011
80 35.453
81 32.065
82 15.999
83 12.011
84 14.007
85 1.008
86 15.999
87 14.007
88 12.011
89 12.011
90 12.011
91 12.011
92 12.011
93 12.011
94 12.011
95 1.008
96 12.011
97 12.011
98 12.011
99 1.008
100 12.011
101 1.008
102 12.011
103 12.011
104 12.011
105 12.011
106 35.453
107 12.011
108 1.008
109 15.999
110 1.008
111 1.008
112 12.011
113 12.011
114 12.011
115 15.999
116 12.011
117 12.011
118 15.999
119 1.008
120 15.999
121 1.008
122 15.999
123 1.008
124 12.011
125 12.011
126 12.011
127 1.008
128 15.999
129 12.011
130 15.999
131 15.999
132 12.011
133 12.011
134 12.011
135 12.011
136 1.008
137 15.999
138 15.999
139 1.008
140 12.011
141 1.008
142 12.011
143 1.008
144 12.011
145 1.008
146 12.011
147 1.008
148 12.011
149 12.011
150 12.011
151 32.065
152 32.065
153 32.065
154 32.065
155 1.008
156 1.008
157 12.011
158 12.011
159 12.011
160 12.011
161 12.011
162 12.011
163 12.011
164 12.011
165 12.011
166 12.011
167 12.011
168 12.011
169 12.011
170 12.011
171 12.011
172 12.011
173 32.065
174 12.011
175 12.011
176 12.011
177 35.453
178 12.011
179 12.011
180 12.011
181 12.011
182 12.011
183 12.011
184 12.011
185 12.011
186 12.011
187 15.999
188 14.007
189 14.007
190 14.007
191 1.008
192 1.008
193 12.011
194 12.011
195 12.011
196 12.011
197 12.011
198 12.011
199 15.999
200 14.007
201 1.008
202 14.007
203 12.011
204 15.999
205 1.008
206 1.008
207 12.011
208 12.011
209 12.011
210 12.011
211 12.011
212 12.011
213 14.007
214 12.011
215 35.453
216 14.007
217 12.011
218 12.011
219 15.999
220 15.999
221 1.008
222 12.011
223 15.999
224 12.011
225 12.011
226 12.011
227 12.011
228 12.011
229 15.999
230 1.008
231 12.011
232 15.999
233 1.008
234 12.011
235 12.011
236 12.011
237 14.007
238 14.007
239 14.007
240 1.008
241 1.008
242 12.011
243 12.011
244 12.011
245 12.011
246 12.011
247 12.011
248 12.011
249 12.011
250 12.011
251 14.007
252 1.008
253 12.011
254 14.007
255 1.008
256 12.011
257 12.011
258 12.011
259 12.011
260 14.007
261 1.008
262 14.007
263 12.011
264 14.007
265 1.008
266 12.011
267 1.008
268 12.011
269 1.008
270 14.007
271 12.011
272 14.007
273 12.011
274 12.011
275 12.011
276 1.008
277 15.999
278 1.008
279 15.999
280 1.008
281 1.008
282 12.011
283 1.008
284 14.007
285 12.011
286 14.007
287 12.011
288 12.011
289 12.011
290 1.008
291 15.999
292 14.007
293 1.008
294 1.008
295 1.008
296 1.008
297 14.007
298 12.011
299 14.007
300 12.011
301 12.011
302 12.011
303 14.007
304 12.011
305 14.007
306 1.008
307 14.007
308 1.008
309 1.008
310 1.008
311 1.008
312 14.007
313 12.011
314 14.007
315 12.011
316 12.011
317 12.011
318 1.008
319 14.007
320 1.008
321 15.999
322 12.011
323 1.008
324 12.011
325 1.008
326 12.011
327 1.008
328 14.007
329 12.011
330 14.007
331 12.011
332 12.011
333 12.011
334 1.008
335 15.999
336 1.008
337 14.007
338 1.008
339 1.008
340 1.008
341 1.008
342 12.011
343 1.008
344 30.974
345 15.999
346 15.999
347 12.011
348 12.011
349 35.453
350 12.011
351 18.998
352 35.453
353 79.904
354 126.905
355 14.007
356 6.941
357 22.99
358 39.098
359 85.468
360 132.905
361 24.305
362 40.078
363 87.62
364 137.327
365 12.011
366 1.008
367 32.065
368 12.011
369 1.008
370 15.999
371 12.011
372 1.008
373 12.011
374 14.007
375 12.011
376 1.008
377 14.007
378 1.008
379 12.011
380 1.008
381 12.011
382 1.008
383 4.003
384 15.999
385 1.008
386 238.029
387 15.999
388 12.011
389 15.999
390 30.974
391 15.999
392 15.999
393 12.011
394 1.008
395 30.974
396 15.999
397 15.999
398 12.011
399 1.008
400 30.974
401 15.999
402 15.999
403 12.011
404 1.008
405 12.011
406 1.008
407 12.011
408 12.011
409 1.008
410 12.011
411 12.011
412 1.008
413 12.011
414 12.011
415 12.011
416 15.999
417 15.999
418 12.011
419 1.008
420 12.011
421 12.011
422 12.011
423 15.999
424 32.065
425 15.999
426 12.011
427 1.008
428 14.007
429 1.008
430 14.007
431 1.008
432 12.011
433 1.008
434 12.011
435 1.008
436 12.011
437 1.008
438 12.011
439 12.011
440 12.011
441 12.011
442 12.011
443 32.065
444 15.999
445 32.065
446 32.065
447 15.999
448 12.011
449 12.011
450 12.011
451 12.011
452 12.011
453 14.007
454 1.008
455 12.011
456 12.011
457 12.011
458 12.011
459 12.011
460 12.011
461 14.007
462 14.007
463 1.008
464 12.011
465 12.011
466 12.011
467 12.011
468 12.011
469 12.011
470 14.007
471 12.011
472 12.011
473 12.011
474 1.008
475 1.008
476 1.008
477 14.007
478 12.011
479 1.008
480 14.007
481 12.011
482 12.011
483 12.011
484 1.008
485 1.008
486 1.008
487 14.007
488 12.011
489 12.011
490 1.008
491 1.008
492 14.007
493 12.011
494 12.011
495 1.008
496 1.008
497 1.008
498 14.007
499 14.007
500 12.011
501 12.011
502 12.011
503 1.008
504 1.008
505 1.008
506 1.008
507 14.007
508 12.011
509 14.007
510 12.011
511 12.011
512 1.008
513 1.008
514 1.008
515 1.008
516 15.999
517 12.011
518 12.011
519 1.008
520 1.008
521 15.999
522 12.011
523 14.007
524 12.011
525 12.011
526 1.008
527 1.008
528 1.008
529 15.999
530 14.007
531 12.011
532 12.011
533 12.011
534 1.008
535 1.008
536 1.008
537 14.007
538 12.011
539 12.011
540 12.011
541 12.011
542 12.011
543 12.011
544 12.011
545 12.011
546 1.008
547 1.008
548 1.008
549 1.008
550 1.008
551 1.008
552 1.008
553 14.007
554 12.011
555 12.011
556 12.011
557 12.011
558 12.011
559 12.011
560 12.011
561 12.011
562 12.011
563 1.008
564 1.008
565 1.008
566 1.008
567 1.008
568 1.008
569 1.008
570 14.007
571 12.011
572 14.007
573 12.011
574 12.011
575 12.011
576 14.007
577 12.011
578 14.007
579 1.008
580 1.008
581 1.008
582 1.008
583 32.065
584 12.011
585 14.007
586 12.011
587 12.011
588 1.008
589 1.008
590 1.008
591 14.007
592 12.011
593 1.008
594 12.011
595 12.011
596 14.007
597 12.011
598 12.011
599 12.011
600 12.011
601 12.011
602 12.011
603 1.008
604 1.008
605 1.008
606 1.008
607 14.007
608 12.011
609 14.007
610 12.011
611 12.011
612 12.011
613 1.008
614 1.008
615 1.008
616 1.008
617 12.011
618 12.011
619 12.011
620 12.011
621 12.011
622 12.011
623 12.011
624 12.011
625 12.011
626 12.011
627 12.011
628 12.011
629 12.011
630 12.011
631 12.011
632 32.065
633 1.008
634 12.011
635 12.011
636 14.007
637 12.011
638 12.011
639 12.011
640 12.011
641 12.011
642 12.011
643 12.011
644 12.011
645 12.011
646 32.065
647 227
648 232.038
649 243
650 12.011
651 12.011
652 1.008
653 138.905
654 144.242
655 151.964
656 157.25
657 173.04
658 12.011
659 35.453
660 1.008
661 12.011
662 12.011
663 12.011
664 12.011
665 12.011
666 12.011
667 12.011
668 18.998
669 12.011
670 18.998
671 79.904
672 12.011
673 12.011
674 12.011
675 18.998
676 12.011
677 18.998
678 12.011
679 79.904
680 12.011
681 126.905
682 12.011
683 32.065
684 12.011
685 12.011
686 12.011
687 12.011
688 12.011
689 1.008
690 1.008
691 12.011
692 14.007
693 1.008
694 1.008
695 1.008
696 12.011
697 12.011
698 14.007
699 14.007
700 14.007
701 12.011
702 14.007
703 12.011
704 12.011
705 12.011
706 12.011
707 12.011
708 1.008
709 14.007
710 15.999
711 12.011
712 1.008
713 12.011
714 12.011
715 12.011
716 14.007
717 12.011
718 12.011
719 14.007
720 15.999
721 12.011
722 15.999
723 12.011
724 12.011
725 12.011
726 1.008
727 1.008
728 1.008
729 15.999
730 30.974
731 12.011
732 12.011
733 1.008
734 30.974
735 18.998
736 14.007
737 15.999
738 12.011
739 12.011
740 12.011
741 18.998
742 12.011
743 1.008
744 12.011
745 1.008
746 14.007
747 14.007
748 14.007
749 12.011
750 12.011
751 12.011
752 12.011
753 12.011
754 12.011
755 1.008
756 1.008
757 1.008
758 12.011
759 12.011
760 12.011
761 12.011
762 12.011
763 12.011
764 12.011
765 12.011
766 12.011
767 12.011
768 12.011
769 12.011
770 12.011
771 12.011
772 1.008
773 12.011
774 12.011
775 12.011
776 12.011
777 12.011
778 12.011
779 12.011
780 15.999
781 1.008
782 14.007
783 14.007
784 14.007
785 12.011
786 14.007
787 1.008
788 12.011
789 12.011
790 12.011
791 12.011
792 12.011
793 12.011
794 12.011
795 12.011
796 1.008
797 12.011
798 12.011
799 14.007
800 15.999
801 1.008
802 18.998
803 12.011
804 1.008
805 12.011
806 12.011
807 12.011
808 12.011
809 12.011
810 12.011
811 18.998
812 12.011
813 1.008
814 12.011
815 12.011
816 35.453
817 12.011
818 1.008
819 12.011
820 12.011
821 79.904
822 12.011
823 1.008
824 12.011
825 12.011
826 18.998
827 35.453
828 79.904
829 12.011
830 15.999
831 12.011
832 18.998
833 14.007
834 12.011
835 12.011
836 12.011
837 12.011
838 15.999
839 14.007
840 1.008
841 15.999
842 1.008
843 12.011
844 12.011
845 12.011
846 12.011
847 12.011
848 12.011
849 12.011
850 65.377
851 1e-17
852 1e-17
853 1e-17
854 12.011
855 35.453
856 12.011
857 12.011
858 12.011
859 126.905
860 1.008
861 12.011
862 79.904
863 12.011
864 126.905
865 14.007
866 12.011
867 15.999
868 12.011
869 12.011
870 12.011
871 1.008
872 12.011
873 14.007
874 12.011
875 12.011
876 15.999
877 14.007
878 12.011
879 12.011
880 12.011
881 12.011
882 1.008
883 12.011
884 15.999
885 1.008
886 12.011
887 12.011
888 12.011
889 12.011
890 12.011
891 12.011
892 12.011
893 12.011
894 12.011
895 12.011
896 28.086
897 28.086
898 28.086
899 28.086
900 1.008
901 12.011
902 12.011
903 12.011
904 12.011
905 12.011
906 28.086
907 28.086
908 28.086
909 15.999
910 1.008
911 28.086
912 28.086
913 28.086
914 15.999
915 28.086
916 28.086
917 28.086
918 28.086
919 28.086
920 28.086
921 12.011
922 1.008
923 12.011
924 1.008
925 18.998
926 35.453
927 79.904
928 126.905
929 6.941
930 22.99
931 39.098
932 85.468
933 132.905
934 24.305
935 40.078
936 87.62
937 137.327
938 12.011
939 12.011
940 12.011
941 12.011
942 1.008
943 14.007
944 12.011
945 14.007
946 12.011
947 12.011
948 12.011
949 1.008
950 12.011
951 12.011
952 12.011
953 12.011
954 12.011
955 15.999
956 12.011
957 15.999
958 12.011
959 32.065
960 12.011
961 14.007
962 12.011
963 12.011
964 1.008
965 1.008
966 12.011
967 12.011
968 15.999
969 1.008
970 18.998
971 1.008
972 12.011
973 12.011
974 12.011
975 12.011
976 15.999
977 1.008
978 15.999
979 1.008
980 1e-17
981 15.999
982 1.008
983 1e-17
984 15.999
985 15.999
986 1.008
987 1.008
988 15.999
989 1.008
990 1e-17

Pair Coeffs # lj/cut/coul/long

1 0.03 2.46
2 0.02 2.556
3 0.018 2.126
4 0.05 3.25
5 0.05 3.6
6 0.068 3.55
7 0.17 3.25
8 0.17 3
9 0.06 2.9
10 0.069 2.78
11 0.003 3.33
12 0.05 3.4
13 0.1 4.05
14 0.1 4
15 0.2 3.74
16 0.355 3.6
17 0.3 3.4
18 0.234 3.401
19 0.1 2
20 0.47 3.47
21 0.58 3.55
22 0.066 3.55
23 0.072 3.4
24 0.07 3.34
25 0.066 3.51
26 0.066 3.5
27 0.066 3.5
28 0.026 2.48
29 0.066 3.55
30 0.066 3.51
31 0.066 3.5
32 0.066 3.5
33 0.294 3.73
34 0.207 3.775
35 0.175 3.905
36 0.16 3.91
37 0.145 3.96
38 0.118 3.905
39 0.14 3.85
40 0.08 3.85
41 0.115 3.8
42 0.11 3.75
43 0.05 3.8
44 0.105 3.75
45 0.17 3.07
46 0 0
47 0.207 3.775
48 0.118 3.905
49 0.25 3.7
50 0.25 3.55
51 0.25 3.55
52 0.25 3.55
53 0 0
54 0 0
55 0.207 3.775
56 0.118 3.905
57 0.17 3.8
58 0.118 3.8
59 0.17 3.8
60 0.118 3.8
61 0.17 3.2
62 0.15 3.65
63 0.207 3.775
64 0 0
65 0.02 2.556
66 0.069 2.78
67 0.2339 3.401
68 0.317 3.624
69 0.433 3.935
70 0.08 3.85
71 0.05 3.8
72 0.17 3
73 0.17 3.8
74 0.118 3.8
75 0.118 3.8
76 0.3 3.4
77 0.08 3.8
78 0.3 3.47
79 0.05 3.8
80 0.266 3.47
81 0.395 3.56
82 0.28 2.93
83 0.16 3.81
84 0.17 3.42
85 0 0
86 0.21 2.96
87 0.17 3.25
88 0.115 3.8
89 0.17 3.8
90 0.066 3.5
91 0.066 3.5
92 0.066 3.5
93 0.06 3.57
94 0.066 3.5
95 0.03 2.5
96 0.076 3.55
97 0.076 3.55
98 0.076 3.55
99 0.03 2.42
100 0.068 3.55
101 0.03 2.42
102 0.068 3.55
103 0.066 3.5
104 0.066 3.5
105 0.076 3.55
106 0.3 3.4
107 0.066 3.5
108 0.03 2.5
109 0.17 3.12
110 0 0
111 0.03 2.5
112 0.066 3.5
113 0.066 3.5
114 0.066 3.5
115 0.17 3.15
116 0.068 3.55
117 0.068 3.55
118 0.17 3.07
119 0 0
120 0.17 3.07
121 0 0
122 0.17 3.07
123 0 0
124 0.066 3.51
125 0.066 3.5
126 0.066 3.5
127 0.026 2.48
128 0.14 2.9
129 0.076 3.55
130 0.14 2.9
131 0.12 2.9
132 0.066 3.5
133 0.066 3.5
134 0.066 3.5
135 0.066 3.5
136 0.026 2.48
137 0.14 2.9
138 0.17 3.07
139 0 0
140 0.066 3.5
141 0.03 2.5
142 0.066 3.5
143 0.03 2.5
144 0.066 3.5
145 0.03 2.5
146 0.066 3.5
147 0.03 2.5
148 0.066 3.5
149 0.066 3.5
150 0.068 3.55
151 0.425 3.6
152 0.25 3.7
153 0.355 3.6
154 0.355 3.6
155 0 0
156 0 0
157 0.066 3.5
158 0.066 3.5
159 0.066 3.5
160 0.066 3.5
161 0.066 3.5
162 0.066 3.5
163 0.066 3.5
164 0.066 3.5
165 0.066 3.5
166 0.066 3.5
167 0.066 3.5
168 0.066 3.5
169 0.066 3.5
170 0.066 3.5
171 0.066 3.5
172 0.068 3.55
173 0.355 3.6
174 0.066 3.5
175 0.066 3.5
176 0.066 3.5
177 0.3 3.4
178 0.076 3.55
179 0.068 3.55
180 0.066 3.5
181 0.066 3.5
182 0.105 3.75
183 0.105 3.75
184 0.105 3.75
185 0.105 3.75
186 0.105 3.75
187 0.21 2.96
188 0.17 3.25
189 0.17 3.25
190 0.17 3.25
191 0 0
192 0 0
193 0.066 3.5
194 0.066 3.5
195 0.066 3.5
196 0.066 3.5
197 0.066 3.5
198 0.105 3.75
199 0.21 2.96
200 0.17 3.25
201 0 0
202 0.17 3.25
203 0.105 3.75
204 0.21 2.96
205 0 0
206 0.02 2.5
207 0.066 3.5
208 0.066 3.5
209 0.066 3.5
210 0.066 3.5
211 0.068 3.55
212 0.15 3.65
213 0.17 3.2
214 0.068 3.55
215 0.3 3.4
216 0.17 3.25
217 0.068 3.55
218 0.105 3.75
219 0.17 3
220 0.21 2.96
221 0 0
222 0.105 3.75
223 0.21 2.96
224 0.066 3.5
225 0.066 3.5
226 0.066 3.5
227 0.066 3.5
228 0.105 3.75
229 0.21 2.96
230 0.03 2.42
231 0.105 3.75
232 0.21 2.96
233 0.015 2.42
234 0.066 3.5
235 0.066 3.5
236 0.066 3.5
237 0.29 3.48
238 0.29 3.48
239 0.29 3.48
240 0 0
241 0 0
242 0.066 3.5
243 0.066 3.5
244 0.066 3.5
245 0.066 3.5
246 0.066 3.5
247 0.066 3.5
248 0.066 3.5
249 0.066 3.5
250 0.066 3.5
251 0.17 3.25
252 0 0
253 0.05 3.55
254 0.17 3.25
255 0 0
256 0.066 3.5
257 0.066 3.5
258 0.066 3.5
259 0.066 3.5
260 0.29 3.48
261 0 0
262 0.17 3.25
263 0.08 3.5
264 0.17 3.25
265 0 0
266 0.08 3.5
267 0.05 2.5
268 0.08 3.5
269 0.05 2.5
270 0.17 3.25
271 0.105 3.75
272 0.17 3.25
273 0.105 3.75
274 0.08 3.5
275 0.08 3.5
276 0 0
277 0.21 2.96
278 0 0
279 0.21 2.96
280 0.05 2.5
281 0.05 2.5
282 0.08 3.5
283 0.05 2.5
284 0.17 3.25
285 0.105 3.75
286 0.17 3.25
287 0.08 3.5
288 0.08 3.5
289 0.08 3.5
290 0 0
291 0.21 2.96
292 0.17 3.25
293 0 0
294 0 0
295 0.05 2.5
296 0.05 2.5
297 0.17 3.25
298 0.08 3.5
299 0.17 3.25
300 0.08 3.5
301 0.08 3.5
302 0.08 3.5
303 0.17 3.25
304 0.08 3.5
305 0.17 3.25
306 0.05 2.5
307 0.17 3.25
308 0 0
309 0 0
310 0.05 2.5
311 0 0
312 0.17 3.25
313 0.08 3.5
314 0.17 3.25
315 0.08 3.5
316 0.08 3.5
317 0.105 3.75
318 0 0
319 0.17 3.25
320 0 0
321 0.21 2.96
322 0.08 3.5
323 0.05 2.5
324 0.08 3.5
325 0.05 2.5
326 0.08 3.5
327 0.05 2.5
328 0.17 3.25
329 0.105 3.75
330 0.17 3.25
331 0.08 3.5
332 0.08 3.5
333 0.08 3.5
334 0 0
335 0.21 2.96
336 0 0
337 0.17 3.25
338 0 0
339 0 0
340 0.05 2.5
341 0.05 2.5
342 0.08 3.5
343 0.05 2.5
344 0.2 3.74
345 0.21 2.96
346 0.17 3
347 0.066 3.55
348 0.08 3.5
349 0.3 3.4
350 0.076 3.55
351 0.71 3.05
352 0.71 4.02
353 0.71 4.28
354 0.71 4.81
355 0.0005 5.34
356 0.0005 2.87
357 0.0005 4.07
358 0.0005 5.17
359 0.0005 5.6
360 0.0005 6.2
361 0.875044 1.64447
362 0.449657 2.41203
363 0.118226 3.10269
364 0.047096 3.81661
365 0.3 4.2
366 0.05 2.5
367 0.5 4.25
368 0.3 4.2
369 0.05 2.5
370 0.25 3.15
371 0.3 4.2
372 0.05 2.5
373 0.15 3.65
374 0.25 3.4
375 0.3 4.2
376 0.05 2.5
377 0.25 3.4
378 0.05 2.5
379 0.3 4.2
380 0.05 2.5
381 0.3 4.2
382 0.05 2.5
383 0 0
384 0.25 3.2
385 0 0
386 0.4 2.81524
387 0.2 3.11815
388 0.066 3.5
389 0.14 2.9
390 0.2 3.74
391 0.2 3.15
392 0.14 2.9
393 0.066 3.5
394 0.03 2.5
395 0.2 3.74
396 0.2 3.15
397 0.14 2.9
398 0.066 3.5
399 0.03 2.5
400 0.2 3.74
401 0.2 3.15
402 0.14 2.9
403 0.066 3.5
404 0.03 2.5
405 0.066 3.5
406 0.03 2.5
407 0.068 3.55
408 0.066 3.5
409 0.03 2.5
410 0.068 3.55
411 0.066 3.5
412 0.03 2.5
413 0.068 3.55
414 0.066 3.5
415 0.105 3.75
416 0.14 2.96
417 0.12 3
418 0.066 3.5
419 0.026 2.48
420 0.105 3.75
421 0.105 3.75
422 0.068 3.55
423 0.17 3
424 0.25 3.55
425 0.17 2.96
426 0.066 3.5
427 0.03 2.5
428 0.17 3.25
429 0 0
430 0.17 3.25
431 0 0
432 0.066 3.5
433 0.03 2.5
434 0.066 3.5
435 0.03 2.5
436 0.066 3.5
437 0.03 2.5
438 0.068 3.55
439 0.068 3.55
440 0.066 3.5
441 0.066 3.5
442 0.066 3.5
443 0.25 3.55
444 0.17 2.96
445 0.395 3.56
446 0.395 3.56
447 0.28 2.93
448 0.066 3.5
449 0.066 3.5
450 0.07 3.55
451 0.07 3.55
452 0.07 3.55
453 0.17 3.25
454 0 0
455 0.066 3.5
456 0.07 3.55
457 0.07 3.55
458 0.07 3.55
459 0.07 3.55
460 0.07 3.55
461 0.17 3.25
462 0.17 3.25
463 0 0
464 0.07 3.55
465 0.066 3.5
466 0.066 3.5
467 0.076 3.55
468 0.076 3.55
469 0.068 3.55
470 0.17 3.25
471 0.07 3.55
472 0.07 3.55
473 0.07 3.55
474 0.03 2.42
475 0.03 2.42
476 0.03 2.42
477 0.17 3.25
478 0.07 3.55
479 0.03 2.42
480 0.17 3.25
481 0.07 3.55
482 0.07 3.55
483 0.07 3.55
484 0.03 2.42
485 0.03 2.42
486 0.03 2.42
487 0.17 3.25
488 0.07 3.55
489 0.07 3.55
490 0.03 2.42
491 0.03 2.42
492 0.17 3.25
493 0.07 3.55
494 0.07 3.55
495 0 0
496 0.03 2.42
497 0.03 2.42
498 0.17 3.25
499 0.17 3.25
500 0.07 3.55
501 0.07 3.55
502 0.07 3.55
503 0 0
504 0.03 2.42
505 0.03 2.42
506 0.03 2.42
507 0.17 3.25
508 0.07 3.55
509 0.17 3.25
510 0.07 3.55
511 0.07 3.55
512 0 0
513 0.03 2.42
514 0.03 2.42
515 0.03 2.42
516 0.14 2.9
517 0.07 3.55
518 0.076 3.55
519 0.03 2.42
520 0.03 2.42
521 0.14 2.9
522 0.07 3.55
523 0.17 3.25
524 0.07 3.55
525 0.07 3.55
526 0.03 2.42
527 0.03 2.42
528 0.03 2.42
529 0.14 2.9
530 0.17 3.25
531 0.07 3.55
532 0.07 3.55
533 0.07 3.55
534 0.03 2.42
535 0.03 2.42
536 0.03 2.42
537 0.17 3.25
538 0.07 3.55
539 0.07 3.55
540 0.07 3.55
541 0.07 3.55
542 0.07 3.55
543 0.07 3.55
544 0.07 3.55
545 0.07 3.55
546 0 0
547 0.03 2.42
548 0.03 2.42
549 0.03 2.42
550 0.03 2.42
551 0.03 2.42
552 0.03 2.42
553 0.17 3.25
554 0.07 3.55
555 0.07 3.55
556 0.07 3.55
557 0.07 3.55
558 0.07 3.55
559 0.07 3.55
560 0.07 3.55
561 0.07 3.55
562 0.07 3.55
563 0.03 2.42
564 0.03 2.42
565 0.03 2.42
566 0.03 2.42
567 0.03 2.42
568 0.03 2.42
569 0.03 2.42
570 0.17 3.25
571 0.07 3.55
572 0.17 3.25
573 0.07 3.55
574 0.07 3.55
575 0.07 3.55
576 0.17 3.25
577 0.07 3.55
578 0.17 3.25
579 0.03 2.42
580 0.03 2.42
581 0.03 2.42
582 0 0
583 0.355 3.6
584 0.07 3.55
585 0.17 3.25
586 0.07 3.55
587 0.07 3.55
588 0.03 2.42
589 0.03 2.42
590 0.03 2.42
591 0.17 3.25
592 0.07 3.55
593 0.03 2.42
594 0.07 3.55
595 0.066 3.5
596 0.17 3.25
597 0.07 3.55
598 0.07 3.55
599 0.07 3.55
600 0.07 3.55
601 0.07 3.55
602 0.07 3.55
603 0.03 2.42
604 0.03 2.42
605 0.03 2.42
606 0.03 2.42
607 0.17 3.25
608 0.07 3.55
609 0.17 3.25
610 0.07 3.55
611 0.07 3.55
612 0.066 3.5
613 0.03 2.42
614 0.03 2.42
615 0.03 2.42
616 0.03 2.5
617 0.066 3.5
618 0.066 3.5
619 0.066 3.5
620 0.066 3.5
621 0.066 3.5
622 0.066 3.5
623 0.066 3.5
624 0.066 3.5
625 0.066 3.5
626 0.066 3.5
627 0.066 3.5
628 0.066 3.5
629 0.066 3.5
630 0.066 3.5
631 0.066 3.5
632 0.425 3.6
633 0 0
634 0.07 3.55
635 0.105 3.75
636 0.17 3.25
637 0.066 3.5
638 0.066 3.5
639 0.066 3.5
640 0.07 3.55
641 0.07 3.55
642 0.07 3.55
643 0.07 3.55
644 0.07 3.55
645 0.07 3.55
646 0.355 3.6
647 0.054 3.473
648 0.05 3.3
649 0.05 3.3
650 0.076 3.55
651 0.066 3.5
652 0.03 2.5
653 0.06 3.75
654 0.054 3.473
655 0.05 3.3
656 0.05 3.3
657 0.04 2.95
658 0.076 3.55
659 0.3 3.4
660 0.03 2.42
661 0.088 3.43
662 0.088 3.43
663 0.088 3.43
664 0.077 3.47
665 0.077 3.47
666 0.077 3.47
667 0.068 3.55
668 0.061 2.85
669 0.068 3.55
670 0.061 2.85
671 0.47 3.47
672 0.118 3.905
673 0.068 3.55
674 0.062 3.25
675 0.061 2.94
676 0.068 3.55
677 0.061 2.85
678 0.068 3.55
679 0.45 3.47
680 0.068 3.55
681 0.58 3.8
682 0.066 3.5
683 0.425 3.6
684 0.068 3.55
685 0.068 3.55
686 0.068 3.55
687 0.068 3.55
688 0.068 3.55
689 0.03 2.42
690 0.03 2.42
691 0.05 3.55
692 0.17 3.25
693 0 0
694 0 0
695 0.03 2.42
696 0.066 3.5
697 0.066 3.5
698 0.17 3.25
699 0.17 3.25
700 0.17 3.25
701 0.05 3.55
702 0.17 3.2
703 0.066 3.3
704 0.066 3.3
705 0.066 3.3
706 0.066 3.3
707 0.066 3.3
708 0.015 2.5
709 0.12 3.25
710 0.17 2.96
711 0.066 3.5
712 0.015 2.5
713 0.066 3.5
714 0.066 3.5
715 0.066 3.5
716 0.12 3.25
717 0.068 3.55
718 0.066 3.3
719 0.17 3.25
720 0.21 2.96
721 0.105 3.75
722 0.17 3
723 0.066 3.5
724 0.066 3.5
725 0.066 3.5
726 0.015 2.42
727 0.015 2.42
728 0.015 2.42
729 0.14 2.9
730 0.2 3.74
731 0.066 3.5
732 0.066 3.5
733 0.03 2.5
734 0.2 3.74
735 0.061 3.1181
736 0.17 3.15
737 0.21 2.86
738 0.066 3.5
739 0.068 3.55
740 0.062 3.25
741 0.061 2.94
742 0.068 3.55
743 0.03 2.5
744 0.06 3.57
745 0.026 2.48
746 0.17 3.3
747 0.17 3.3
748 0.17 3.3
749 0.066 3.5
750 0.066 3.5
751 0.066 3.5
752 0.066 3.5
753 0.066 3.5
754 0.066 3.5
755 0 0
756 0 0
757 0.015 2.5
758 0.066 3.5
759 0.066 3.5
760 0.066 3.5
761 0.066 3.5
762 0.068 3.55
763 0.068 3.55
764 0.068 3.55
765 0.066 3.5
766 0.066 3.5
767 0.066 3.5
768 0.066 3.5
769 0.066 3.5
770 0.066 3.5
771 0.11 3.5
772 0.015 2.42
773 0.066 3.55
774 0.066 3.51
775 0.066 3.5
776 0.066 3.5
777 0.066 3.5
778 0.066 3.5
779 0.066 3.5
780 0.17 3.12
781 0 0
782 0.17 3.25
783 0.17 3.25
784 0.17 3.25
785 0.21 3.3
786 0.29 3.48
787 0 0
788 0.066 3.5
789 0.066 3.5
790 0.066 3.5
791 0.066 3.5
792 0.07 3.55
793 0.076 3.55
794 0.07 3.55
795 0.07 3.55
796 0.03 2.5
797 0.066 3.5
798 0.105 3.75
799 0.29 3.48
800 0.21 2.96
801 0 0
802 0.061 2.94
803 0.066 3.5
804 0.03 2.5
805 0.066 3.5
806 0.066 3.5
807 0.066 3.5
808 0.066 3.5
809 0.066 3.5
810 0.097 3.5
811 0.053 2.95
812 0.062 3.25
813 0.03 2.5
814 0.066 3.5
815 0.066 3.5
816 0.3 3.4
817 0.066 3.5
818 0.03 2.5
819 0.066 3.5
820 0.066 3.5
821 0.47 3.47
822 0.066 3.5
823 0.03 2.5
824 0.066 3.5
825 0.066 3.5
826 0.061 2.94
827 0.3 3.4
828 0.47 3.47
829 0.068 3.55
830 0.14 2.9
831 0.066 3.5
832 0.06 2.9
833 0.17 3.25
834 0.068 3.55
835 0.066 3.5
836 0.105 3.75
837 0.105 3.75
838 0.21 2.96
839 0.17 3.25
840 0 0
841 0.17 3.12
842 0 0
843 0.066 3.5
844 0.066 3.5
845 0.07 3.55
846 0.07 3.55
847 0.07 3.55
848 0.07 3.55
849 0.068 3.55
850 0.0125 1.96
851 0 0
852 0 0
853 0 0
854 0.068 3.55
855 0.3 3.4
856 0.066 3.5
857 0.066 3.5
858 0.066 3.5
859 0.6 3.75
860 0.03 2.5
861 0.068 3.55
862 0.47 3.47
863 0.068 3.55
864 0.6 3.75
865 0.17 3.25
866 0.068 3.55
867 0.14 2.9
868 0.066 3.5
869 0.066 3.5
870 0.066 3.5
871 0.03 2.5
872 0.068 3.55
873 0.17 3.25
874 0.068 3.55
875 0.105 3.75
876 0.21 2.96
877 0.17 3.25
878 0.066 3.5
879 0.066 3.5
880 0.066 3.5
881 0.066 3.5
882 0.015 2.42
883 0.105 3.75
884 0.21 2.96
885 0.015 2.42
886 0.066 3.5
887 0.066 3.5
888 0.066 3.5
889 0.066 3.5
890 0.066 3.5
891 0.066 3.5
892 0.066 3.5
893 0.066 3.5
894 0.066 3.5
895 0.066 3.5
896 0.1 4
897 0.1 4
898 0.1 4
899 0.1 4
900 0.03 2.5
901 0.066 3.5
902 0.066 3.5
903 0.066 3.5
904 0.066 3.5
905 0.07 3.55
906 0.1 4
907 0.1 4
908 0.1 4
909 0.17 3.12
910 0 0
911 0.1 4
912 0.1 4
913 0.1 4
914 0.14 2.9
915 0.1 4
916 0.1 4
917 0.1 4
918 0.1 4
919 0.1 4
920 0.1 4
921 0.07 3.55
922 0.03 2.42
923 0.07 3.55
924 0.03 2.42
925 0.72 3.08
926 0.11779 4.18
927 0.09 4.51
928 0.07 5.15
929 0.018279 2.7
930 0.002772 3.35
931 0.000328 4.06
932 0.000171 4.32
933 8.1e-05 4.82
934 0.875044 2.91
935 0.449657 3.47
936 0.118226 3.82
937 0.047096 4.18
938 0.066 3.5
939 0.066 3.5
940 0.066 3.5
941 0.066 3.5
942 0.03 2.5
943 0.29 3.48
944 0.068 3.55
945 0.29 3.48
946 0.068 3.55
947 0.076 3.55
948 0.076 3.55
949 0.03 2.42
950 0.086 3.3
951 0.086 3.3
952 0.086 3.3
953 0.086 3.3
954 0.086 3.3
955 0.21 2.96
956 0.06762 2.62
957 0.188814 2.93
958 0.066 3.5
959 0.355 3.6
960 0.07 3.55
961 0.17 3.25
962 0.07 3.55
963 0.07 3.55
964 0.03 2.42
965 0.03 2.42
966 0.066 3.5
967 0.062 3.25
968 0.17 3.07
969 0 0
970 0.061 2.94
971 0.03 2.5
972 0.088 3.43
973 0.076 3.55
974 0.088 3.43
975 0.11 3.5
976 0.102 3.188
977 0 0
978 0.16275 3.16435
979 0 0
980 0 1
981 0.178 3.097
982 0 1
983 0 1
984 0.1553 3.166
985 0.1553 3.166
986 0 0
987 0 0
988 0.2128 3.16655
989 0 0
990 0 1.7818

Bond Coeffs # harmonic

1 317 1.495
2 388 1.459
3 546 1.352
4 546 1.352
5 317 1.495
6 546 1.352
7 340 1.08
8 320 1.486
9 385 1.46
10 385 1.38
11 385 1.46
12 385 1.46
13 385 1.46
14 385 1.46
15 385 1.46
16 385 1.46
17 385 1.46
18 427 1.381
19 483 1.339
20 385 1.42
21 532.8 1.084
22 260 1.526
23 260 1.526
24 317 1.51
25 317 1.504
26 317 1.51
27 260 1.526
28 367 1.38
29 337 1.463
30 367 1.471
31 382 1.448
32 337 1.449
33 386 1.425
34 320 1.425
35 222 1.81
36 222 1.81
37 260 1.526
38 260 1.526
39 317 1.51
40 337 1.463
41 367 1.471
42 382 1.448
43 337 1.449
44 337 1.475
45 386 1.425
46 320 1.425
47 222 1.81
48 222 1.81
49 317 1.5
50 317 1.5
51 530 1.34
52 317 1.5
53 317 1.5
54 317 1.5
55 317 1.5
56 530 1.34
57 530 1.34
58 317 1.5
59 317 1.5
60 530 1.34
61 530 1.34
62 530 1.34
63 385 1.46
64 317 1.51
65 400 1.426
66 385 1.46
67 340 1.08
68 340 1.08
69 481 1.34
70 415 1.428
71 457 1.29
72 481 1.34
73 300 1.87
74 469 1.4
75 427 1.433
76 469 1.4
77 469 1.404
78 469 1.4
79 469 1.4
80 427 1.433
81 427 1.433
82 469 1.4
83 317 1.51
84 546 1.367
85 317 1.49
86 400 1.451
87 300 1.725
88 427 1.433
89 420 1.354
90 367 1.08
91 250 2.08
92 481 1.34
93 400 1.45
94 427 1.381
95 414 1.391
96 483 1.339
97 400 1.46
98 481 1.34
99 382 1.385
100 400 1.41
101 427 1.381
102 450 1.364
103 450 1.364
104 220 1.78
105 250 1.74
106 250 1.76
107 469 1.4
108 520 1.37
109 469 1.4
110 447 1.419
111 317 1.51
112 520 1.41
113 436 1.374
114 414 1.391
115 461 1.354
116 436 1.374
117 340 1.36
118 520 1.37
119 512 1.375
120 518 1.371
121 317 1.504
122 512 1.375
123 518 1.371
124 422 1.385
125 410 1.394
126 469 1.4
127 469 1.4
128 469 1.4
129 529 1.304
130 440 1.371
131 268 1.529
132 367 1.332
133 410 1.394
134 427 1.381
135 260 1.526
136 382 1.448
137 337 1.449
138 337 1.475
139 386 1.425
140 320 1.425
141 502 1.324
142 549 1.35
143 549 1.35
144 448 1.365
145 367 1.08
146 340 1.08
147 440 1.371
148 529 1.304
149 440 1.371
150 300 1.9
151 549 1.34
152 549 1.34
153 317 1.51
154 317 1.51
155 400 1.426
156 300 1.725
157 420 1.34
158 367 1.08
159 340 1.08
160 340 1.08
161 250 2.08
162 448 1.365
163 483 1.339
164 427 1.381
165 448 1.365
166 450 1.37
167 450 1.37
168 250 1.76
169 428 1.38
170 260 1.526
171 260 1.526
172 337 1.475
173 320 1.38
174 385 1.46
175 546 1.38
176 278 1.496
177 367 1.08
178 477 1.343
179 488 1.335
180 481 1.38
181 278 1.366
182 340 1.356
183 250 1.71
184 250 1.74
185 220 1.763
186 250 1.74
187 367 1.08
188 367 1.08
189 481 1.34
190 502 1.324
191 427 1.381
192 300 1.87
193 520 1.37
194 300 1.725
195 420 1.354
196 367 1.08
197 367 1.08
198 250 2.08
199 481 1.34
200 477 1.343
201 488 1.335
202 461 1.354
203 477 1.343
204 477 1.343
205 250 1.76
206 250 1.76
207 300 1.87
208 469 1.424
209 469 1.424
210 317 1.495
211 546 1.367
212 300 1.725
213 420 1.354
214 367 1.08
215 250 2.08
216 400 1.29
217 245 1.945
218 532.8 1.46
219 260 1.526
220 260 1.526
221 268 1.529
222 268 1.529
223 317 1.49
224 390 1.47
225 245 1.781
226 367 1.36
227 340 1.09
228 200 2.19
229 337 1.463
230 367 1.471
231 337 1.475
232 337 1.449
233 337 1.475
234 337 1.449
235 375 1.49
236 382 1.448
237 382 1.448
238 390 1.43
239 337 1.449
240 337 1.449
241 337 1.475
242 320 1.41
243 320 1.41
244 212 1.82
245 212 1.843
246 222 1.81
247 222 1.81
248 300 1.87
249 469 1.421
250 469 1.424
251 520 1.37
252 400 1.451
253 300 1.725
254 420 1.354
255 367 1.08
256 250 2.08
257 410 1.32
258 427 1.381
259 300 1.87
260 317 1.504
261 520 1.37
262 300 1.725
263 420 1.354
264 367 1.08
265 367 1.08
266 250 2.08
267 410 1.394
268 300 1.87
269 549 1.365
270 481 1.454
271 481 1.454
272 278 1.488
273 512 1.375
274 317 1.465
275 300 1.725
276 420 1.354
277 367 1.08
278 367 1.08
279 250 2.08
280 427 1.381
281 410 1.394
282 481 1.385
283 427 1.381
284 340 1.36
285 340 1.36
286 250 1.74
287 250 1.74
288 317 1.504
289 520 1.37
290 367 1.08
291 427 1.381
292 280 1.473
293 280 1.51
294 260 1.52
295 400 1.436
296 340 1.088
297 382 1.448
298 337 1.449
299 337 1.449
300 260 1.445
301 222 1.81
302 330 1.784
303 1150 1.21
304 330 1.637
305 450 1.279
306 650 1.157
307 300 1.685
308 317 1.522
309 490 1.335
310 570 1.229
311 549 1.365
312 385 1.46
313 317 1.51
314 400 1.444
315 549 1.345
316 340 1.08
317 340 1.08
318 457 1.29
319 300 1.98
320 317 1.522
321 317 1.522
322 400 1.49
323 447 1.419
324 469 1.4
325 317 1.522
326 410 1.444
327 410 1.444
328 317 1.522
329 400 1.49
330 400 1.49
331 400 1.444
332 300 1.79
333 350 1.51
334 420 1.357
335 457 1.29
336 418 1.388
337 457 1.358
338 490 1.335
339 317 1.522
340 400 1.29
341 490 1.335
342 424 1.383
343 656 1.25
344 450 1.364
345 214 1.327
346 570 1.229
347 400 1.64
348 700 1.305
349 700 1.168
350 340 0.3
351 300 0.3
352 367 0.3
353 340 0.3
354 340 0.3
355 340 0.3
356 300 0.3
357 340 0.3
358 340 0.3
359 300 0.3
360 340 0.3
361 340 0.3
362 340 0.1
363 340 0.1
364 340 0.1
365 300 0.3
366 340 0.3
367 367 0.3
368 367 0.3
369 340 0.3
370 367 0.3
371 340 0.3
372 340 0.1
373 340 0.3
374 340 0.3
375 553 0.3
376 340 0.5
377 340 0.5
378 434 1.01
379 434 1.01
380 434 1.01
381 434 1.01
382 340 1.09
383 420 1.08
384 340 1.09
385 0 1.75
386 553 0.945
387 553 0.945
388 274 1.336
389 434 1.01
390 434 1.01
391 434 1.01
392 434 1.01
393 434 1.01
394 434 1.01
395 400 1.349
396 400 1.28
397 250 1.73
398 250 1.73
399 434 1.01
400 500 1.32
401 550 1.24
402 550 1.21
403 418 1.388
404 434 1.01
405 550 1.225
406 337 1.475
407 427 1.381
408 350 1.43
409 320 1.45
410 320 1.45
411 385 1.44
412 427 1.38
413 400 1.35
414 434 1.01
415 550 1.13
416 400 1.38
417 500 1.27
418 320 1.45
419 250 1.73
420 525 1.48
421 462 1.357
422 462 1.399
423 320 1.38
424 230 1.61
425 462 1.357
426 200 1.69
427 462 1.399
428 250 1.47
429 250 1.47
430 230 1.61
431 525 1.48
432 222 1.81
433 222 1.76
434 340 1.77
435 340 1.79
436 340 1.77
437 450 1.6
438 340 1.77
439 434 1.67
440 450 1.67
441 450 1.67
442 700 1.44
443 340 1.79
444 700 1.53
445 151 2.19
446 280 1.87
447 240 1.87
448 223 2.02
449 461 1.57
450 197 1.485
451 108 2.44
452 266 1.74
453 374 1.66
454 374 1.66
455 108 2.25
456 125 2.33
457 144 2.15
458 166 2.038
459 500 1.8
460 600 1.6
461 600 1.6
462 600 1.8
463 40 2.05
464 94 1.8
465 450 0.9572
466 450 1
467 450 0.8724

Angle Coeffs # harmonic

1 63 115.6
2 85 134.9
3 85 108.8
4 85 134.9
5 85 108.8
6 70 108.7
7 70 108.7
8 63 115.6
9 35 109.5
10 70 128.6
11 70 125
12 70 125
13 70 125
14 85 106.4
15 70 128.6
16 85 106.4
17 70 125
18 35 126.8
19 35 126.8
20 60 114
21 78 111.7
22 35 110.5
23 92.6 108.6
24 63 116.6
25 70 120
26 70 118.1
27 35 120
28 63 120
29 35 120
30 70 124
31 70 120
32 85 117.3
33 70 123.1
34 70 125.2
35 70 122
36 35 121.7
37 70 121.6
38 70 121.6
39 70 117.3
40 63 125.2
41 35 118
42 63 119.9
43 5 120
44 70 117
45 63 124
46 63 119.9
47 70 117
48 63 112.4
49 63 112.4
50 63 112.4
51 63 112.4
52 63 112.4
53 50 109.5
54 80 111.2
55 80 111.2
56 56.2 109.47
57 80 111.2
58 80 109.5
59 80 109.5
60 50 114.7
61 70 124
62 70 124
63 70 124
64 70 124
65 70 124
66 70 120
67 70 128.6
68 70 120
69 70 131.9
70 70 129.05
71 70 131.9
72 70 129.05
73 70 122.2
74 70 121.05
75 70 120
76 63 112.4
77 63 112.4
78 63 112.4
79 63 111.5
80 56.2 109.47
81 80 109.7
82 80 109.5
83 80 109.5
84 80 109.5
85 80 109.5
86 70 125
87 70 125
88 70 125
89 40 109.5
90 40 109.5
91 56.2 109.47
92 70 116.6
93 70 117
94 80 120.4
95 50 123.2
96 35 118.4
97 35 118.4
98 35 109.5
99 51.8 107.2
100 51.8 107.2
101 43.2 108.1
102 50 121.9
103 50 118
104 38 118.4
105 55 108.5
106 100 111.8
107 100 111.8
108 100 113
109 55 108.5
110 100 120.5
111 44 96
112 150 96.7
113 62 98.9
114 150 96.7
115 68 103.7
116 63 112.4
117 63 112.4
118 63 112.4
119 63 112.4
120 56.2 109.47
121 80 109.5
122 80 109.5
123 70 124
124 70 124
125 63 111.5
126 63 111.5
127 56.2 109.47
128 80 109.5
129 80 109.5
130 80 109.5
131 85 119.7
132 40 109.5
133 80 109.5
134 40 109.5
135 63 109.5
136 56.2 109.47
137 70 116.6
138 70 117
139 80 120.4
140 50 123.2
141 35 118.4
142 35 109.5
143 51.8 107.2
144 43.2 108.1
145 38 118.4
146 70 125.8
147 70 128.8
148 70 128.8
149 55 108.5
150 100 113
151 100 120.5
152 44 96
153 150 96.7
154 150 96.7
155 68 103.7
156 70 118
157 70 118
158 70 118
159 70 118
160 70 118
161 70 118
162 70 118
163 70 118
164 70 118
165 70 118
166 70 118
167 70 118
168 70 118
169 70 118
170 70 118
171 70 118
172 70 118
173 62 98.9
174 70 118
175 70 118
176 70 118
177 70 118
178 70 118
179 70 118
180 70 118
181 70 118
182 70 118
183 70 118
184 70 118
185 70 118
186 70 118
187 63 123.9
188 63 126
189 63 124.2
190 63 124.7
191 70 119.6
192 63 123.8
193 70 124
194 35 120
195 35 120
196 70 121.5
197 85 117
198 85 121.7
199 35 120
200 35 120
201 70 123
202 70 123
203 35 109.5
204 160 180
205 150 180
206 70 124
207 35 120
208 70 116
209 80 116
210 80 124
211 35 119.8
212 10 109.47
213 200 180
214 63 120
215 63 120
216 63 120
217 63 120
218 63 120
219 63 120
220 63 120
221 63 120
222 70 124
223 63 120
224 63 114
225 85 117
226 35 123.3
227 75 120
228 63 120
229 70 124
230 63 120
231 63 120
232 85 120
233 70 124
234 85 120
235 70 120
236 70 107.4
237 70 120.7
238 70 120
239 75 120
240 70 124
241 10 90
242 80 120
243 35 120
244 75 120
245 70 120.1
246 70 120
247 70 108.7
248 70 108.7
249 70 124
250 85 120
251 70 120
252 80 120
253 70 120
254 70 120
255 70 120
256 70 120
257 45 121
258 85 134.9
259 85 117.3
260 85 108.8
261 85 116.2
262 70 120
263 70 132.4
264 70 118.4
265 70 132.8
266 85 120
267 50 109.5
268 80 109.5
269 85 117
270 85 117
271 85 119.7
272 35 123.3
273 85 122.7
274 70 132.8
275 69 110
276 63 114
277 40 109.5
278 63 114
279 63 112
280 50 109.5
281 35 109.5
282 80 111.2
283 80 111.2
284 80 111.2
285 50 109.5
286 50 109.5
287 43 109.5
288 50 114.7
289 35 128.6
290 70 116
291 70 111
292 70 121.6
293 37.5 114
294 160 180
295 150 180
296 10 109.47
297 200 180
298 85 117
299 35 123.3
300 85 120
301 35 115
302 70 115.5
303 70 117
304 70 120
305 80 120.4
306 10 109.47
307 10 109.47
308 200 180
309 50 121.9
310 50 123.2
311 35 120
312 35 120
313 35 120
314 55 114
315 35 109.5
316 70 125.2
317 70 111.6
318 70 109.8
319 35 118
320 70 125.2
321 70 117
322 70 117
323 70 112.2
324 70 118.6
325 70 118.6
326 50 118
327 5 120
328 35 113
329 70 117
330 80 117.5
331 50 116
332 50 116
333 50 109.5
334 63 112
335 10 109.5
336 35 116
337 50 108.6
338 50 120.5
339 50 112.5
340 170 180
341 70 118
342 70 118
343 50 118
344 70 118
345 70 118
346 35 119.8
347 70 121
348 10 109.47
349 35 113
350 100 111.8
351 75 116.3
352 10 109.47
353 100 120.5
354 62 123
355 45 109.5
356 45 109.5
357 45 109.5
358 50 96
359 62 102
360 62 96.1
361 74 107.2
362 40 112.5
363 62 104.2
364 65 97
365 63 120
366 63 120
367 70 128.6
368 63 106.4
369 35 120
370 70 123.5
371 70 108.7
372 70 117.3
373 63 120
374 85 120
375 70 107.3
376 70 120
377 70 106.2
378 70 111
379 70 127.7
380 70 127.7
381 70 106.2
382 85 122.7
383 85 122.7
384 70 104.4
385 85 120
386 85 122.7
387 70 104.4
388 85 106.4
389 70 107.3
390 70 128.6
391 85 106.4
392 35 120
393 63 114
394 35 109.5
395 70 111.3
396 70 111
397 70 111.3
398 70 111.3
399 80 125
400 70 105.4
401 70 109.8
402 70 125.8
403 70 109.8
404 30 125.8
405 56 113.1
406 70 103.8
407 70 103.8
408 70 117
409 70 111
410 70 111
411 70 105.4
412 70 125.8
413 70 105.4
414 70 125.8
415 70 125.8
416 30 125.8
417 10 125
418 74 97
419 74 92.4
420 63 113.1
421 35 120
422 70 109.9
423 70 105.9
424 63 113.1
425 35 109.5
426 70 111.6
427 70 107.3
428 70 120
429 35 120
430 70 105.3
431 70 117
432 63 114
433 85 120
434 85 116.2
435 70 132.8
436 85 120
437 85 120
438 85 120
439 70 132.8
440 85 120
441 70 120
442 70 128.8
443 70 128.8
444 35 127.3
445 70 105.9
446 58.35 112.7
447 50 109.5
448 70 105.3
449 70 105.3
450 70 108.75
451 70 109.9
452 70 111.6
453 70 107.3
454 70 107.3
455 35 126.35
456 63 112.4
457 56.2 109.47
458 80 109.5
459 80 109.5
460 50 108.6
461 50 114.7
462 70 124
463 70 124
464 70 124
465 70 124
466 70 124
467 70 120
468 63 111.5
469 56.2 109.47
470 80 109.7
471 80 109.5
472 80 109.5
473 80 109.5
474 56.2 109.47
475 70 116.6
476 65 117
477 70 115
478 81 111.4
479 80 120.4
480 51.8 107.2
481 51.8 107.2
482 51.8 107.2
483 43.2 108.1
484 38 118.4
485 70 121.2
486 70 128.8
487 55 108.5
488 100 111.8
489 100 113
490 55 108.5
491 100 120.5
492 70 120.1
493 70 121.5
494 70 121.2
495 85 119.7
496 70 114.1
497 80 125.3
498 70 121.2
499 35 119.2
500 70 128.8
501 30 128.8
502 70 128.8
503 70 128.8
504 30 128.8
505 200 180
506 70 124
507 70 124
508 70 118.7
509 35 120
510 35 120
511 70 121.2
512 70 121.5
513 70 120.1
514 70 120.1
515 70 121.5
516 70 121.5
517 70 121.2
518 75 120
519 70 124
520 70 124
521 70 124
522 75 121.5
523 80 121.5
524 35 119.7
525 35 120
526 35 120
527 70 121.2
528 70 121.2
529 70 123
530 70 123
531 40 109.5
532 63 112.4
533 63 111.1
534 50 109.5
535 35 109.5
536 63 114
537 35 109.5
538 160 180
539 150 180
540 200 180
541 70 114.1
542 70 115.5
543 80 125.3
544 160 180
545 160 180
546 200 180
547 35 119.2
548 70 112.2
549 100 180
550 35 119.8
551 70 121.2
552 70 121.2
553 35 119.2
554 35 109
555 75 111
556 35 120
557 70 111.6
558 35 123.1
559 58.35 112.7
560 37.5 110.7
561 50 109.5
562 55 108.5
563 60 109.5
564 63 123.8
565 63 120.5
566 63 117.2
567 63 116.8
568 35 123.3
569 63 123.6
570 35 123.1
571 35 109.5
572 35 126.35
573 50 116
574 35 116
575 35 109
576 60 114
577 70 92.2
578 70 92.2
579 60 96
580 60 99.9
581 35 120
582 70 118.6
583 70 118.6
584 5 119.8
585 70 118.2
586 35 118
587 63 114.3
588 70 116.6
589 70 110.4
590 70 126.2
591 35 124
592 56 113.1
593 70 110
594 70 110
595 70 110
596 70 104
597 70 110
598 10 125
599 70 109
600 70 107.3
601 70 110.8
602 70 111
603 70 107
604 70 106.5
605 70 107
606 70 104
607 10 125
608 70 92.2
609 70 85.7
610 62 102
611 74 97
612 74 90
613 10 130
614 63 116.8
615 63 117
616 85 134.9
617 85 108.8
618 85 134.9
619 85 108.8
620 63 127.7
621 70 128.5
622 70 128.5
623 70 128.5
624 70 128.4
625 35 128.2
626 70 128.6
627 60 128
628 65 127.1
629 65 127.1
630 70 106.2
631 70 127.7
632 70 127.5
633 70 112.3
634 35 127.5
635 63 115.6
636 35 109.5
637 70 129.4
638 70 132.1
639 70 132.1
640 70 134
641 35 132.1
642 70 107.7
643 60 130.5
644 80 128.2
645 100 180
646 35 119.8
647 10 109.47
648 200 180
649 172.8 120
650 144 120
651 56.2 109.47
652 70 124
653 70 124
654 70 124
655 70 124
656 70 124
657 70 124
658 70 124
659 70 124
660 70 120
661 70 120
662 70 120
663 70 120
664 70 120
665 56.2 109.47
666 70 124
667 70 130
668 35 117
669 37.5 110.7
670 50 109.5
671 50 109.5
672 70 125
673 69 110
674 63 105
675 58.35 112.7
676 58.35 112.7
677 69 109.8
678 50 109.5
679 37.5 110.7
680 75 112
681 80 111.2
682 80 111.2
683 65 109
684 70 109.5
685 80 109.7
686 63 111.1
687 56.2 109.47
688 80 111.2
689 80 109.7
690 50 109.5
691 50 109.5
692 50 109.5
693 43 109.5
694 43 109.5
695 50 108.6
696 50 108.6
697 50 108.6
698 40 114
699 50 114.7
700 70 130.7
701 70 130.7
702 70 120
703 70 121.6
704 70 116.6
705 70 130.7
706 70 121.6
707 35 114.3
708 37.5 117.2
709 37.5 114
710 150 180
711 150 180
712 10 109.47
713 200 180
714 75 109
715 70 116
716 70 116
717 75 109
718 80 117.2
719 35 115
720 70 105.8
721 70 116.6
722 70 116.6
723 70 117
724 70 108
725 80 120.4
726 70 123
727 10 109.47
728 37.5 109.47
729 0 37
730 10 109.47
731 200 180
732 50 118
733 35 118.4
734 35 118.4
735 50 113
736 35 109.5
737 70 117
738 70 120
739 70 114
740 70 123.2
741 70 112.5
742 50 118
743 80 117.5
744 51.8 107.2
745 51.8 107.2
746 51.8 107.2
747 51.8 107.2
748 35 109.5
749 50 108.6
750 35 109.5
751 150 180
752 50 118
753 38 118.4
754 10 109.47
755 55 108.5
756 100 120.5
757 75 111
758 75 111
759 60 109.5
760 10 109.47
761 100 120.5
762 40 121
763 45 109.5
764 45 109.5
765 45 109.5
766 45 109.5
767 10 109.47
768 44 96
769 150 96.7
770 62 102
771 62 96.1
772 74 110.5
773 62 96
774 37 112.5
775 60 107
776 60 105
777 40 112
778 62 98.9
779 10 109.47
780 150 96.7
781 68 103.7
782 35 128.2
783 70 103.8
784 150 180
785 70 104.1
786 70 104.1
787 70 105.3
788 35 119.8
789 70 116.6
790 70 120
791 70 122
792 70 106.2
793 70 126
794 70 120
795 63 114
796 35 109.5
797 70 103.6
798 70 106.3
799 70 108
800 70 108
801 70 111.3
802 80 125
803 70 109.3
804 70 110.3
805 70 113.3
806 70 116.4
807 70 117.1
808 35 106
809 70 120
810 70 120
811 70 125.7
812 70 107.3
813 70 103.8
814 35 125.7
815 63 114
816 63 111
817 35 109.5
818 50 114.7
819 70 125.7
820 70 108.7
821 70 111
822 70 120
823 70 120
824 80 120.4
825 70 109.8
826 70 124
827 70 109.8
828 35 124
829 70 104.1
830 70 124
831 70 109.8
832 63 125.2
833 70 109.8
834 35 119.8
835 70 107.4
836 70 108.9
837 70 106.5
838 10 125
839 74 97
840 74 97
841 10 130
842 63 114
843 35 109.5
844 70 106.3
845 70 109.8
846 35 124
847 35 135
848 37.5 110.7
849 70 116.6
850 37.5 121.3
851 37.5 121.3
852 37.5 117.2
853 30 83
854 65 120
855 63 85
856 37.5 117.2
857 37.5 117.2
858 80 89
859 37.5 126
860 50 90
861 55 128
862 150 180
863 80 134
864 50 126
865 50 94
866 55 128
867 40 113
868 60 90
869 62 94
870 35 120
871 35 120
872 35 116
873 80 123
874 65 100
875 55 127
876 60 114
877 78 111.7
878 35 110.5
879 70 124
880 70 124
881 35 120
882 70 124
883 70 124
884 70 124
885 70 124
886 35 120
887 63 112.4
888 63 112.4
889 80 111.2
890 80 110.3
891 85 120
892 70 119.7
893 35 120
894 70 120
895 85 119.2
896 70 130
897 70 130
898 70 120
899 85 120
900 63 111.1
901 63 111.1
902 63 111.1
903 80 109.7
904 63 110.1
905 85 120.7
906 85 119.7
907 85 120.7
908 85 120.7
909 70 119.7
910 70 119.7
911 80 121.5
912 35 119.7
913 35 119.7
914 70 130
915 69 109.8
916 63 111.1
917 63 111.1
918 69 109.8
919 63 111.1
920 50 109.5
921 35 109.5
922 80 111.2
923 63 110.1
924 70 102.8
925 80 111.2
926 63 110.1
927 50 109.5
928 85 119.2
929 70 130
930 85 120
931 85 120
932 160 180
933 150 180
934 70 116.6
935 80 121.4
936 70 120.5
937 70 126.6
938 70 125.2
939 70 121.6
940 70 126.4
941 35 116.8
942 70 120.5
943 70 120.5
944 70 120.5
945 70 112.1
946 50 121.9
947 63 111.1
948 100 180
949 50 121.9
950 50 121.9
951 50 121.9
952 50 121.9
953 70 125.2
954 50 121.9
955 70 126.4
956 10 109.5
957 35 120
958 35 119.8
959 46 115.7
960 70 108.6
961 70 112
962 20 126
963 70 117.6
964 70 121.6
965 70 121.6
966 70 117.6
967 70 117.6
968 35 119.2
969 35 113
970 83 116.9
971 83 116.9
972 83 116.9
973 83 116.9
974 83 116.9
975 35 113
976 80 122
977 80 122
978 80 125
979 40 121
980 33 120
981 33 120
982 33 109.47
983 33 109.47
984 2 90
985 2 90
986 10 90
987 2 90
988 2 90
989 10 90
990 5 90
991 5 90
992 5 90
993 33 109.47
994 33 120
995 10 180
996 10 180
997 33 109.47
998 33 109.47
999 10 180
1000 10 180
1001 33 109.47
1002 33 109.47
1003 33 109.47
1004 0 109.47
1005 33 109.47
1006 33 109.47
1007 33 109.47
1008 10 109.5
1009 33 109.47
1010 10 100
1011 10 100
1012 10 100
1013 10 100
1014 10 100
1015 5 109.47
1016 10 109.5
1017 5 109.47
1018 10 117
1019 5 109.47
1020 5 109.47
1021 77 109.1
1022 80 108
1023 50 112
1024 77 109.1
1025 80 111
1026 80 121
1027 35 110.5
1028 35 120
1029 35 120
1030 35 109.5
1031 35 120
1032 35 120
1033 35 115.45
1034 35 126.9
1035 2 90
1036 35 120
1037 35 119.1
1038 35 120
1039 35 120
1040 35 120
1041 35 120
1042 35 115.45
1043 35 120
1044 35 120
1045 35 117
1046 35 128.5
1047 35 129.2
1048 35 128.2
1049 35 121.7
1050 35 130.7
1051 35 130.7
1052 35 132
1053 35 121.6
1054 35 130.7
1055 35 120
1056 35 119.9
1057 35 122
1058 35 117
1059 35 119.1
1060 35 119.1
1061 33 109.5
1062 35 109.5
1063 35 126.8
1064 35 126.8
1065 51 107.6
1066 35 105
1067 35 109.5
1068 35 109.5
1069 35 110.3
1070 35 108.5
1071 51 107.6
1072 40 107
1073 33 107.8
1074 75 111
1075 35 109.5
1076 35 109.5
1077 35 109.5
1078 35 109.5
1079 35 109.5
1080 35 109.5
1081 35 105
1082 35 109.5
1083 35 109.5
1084 35 108.5
1085 35 109.5
1086 35 109.5
1087 35 109.5
1088 35 109.5
1089 41 109.5
1090 41 109.5
1091 35 109.5
1092 35 109.5
1093 35 114
1094 35 114
1095 35 114.3
1096 37.5 110
1097 35 114.3
1098 35 114.3
1099 35 111
1100 35 108
1101 37.5 117.2
1102 37.5 114
1103 37.5 108
1104 112 180
1105 35 115
1106 40 114
1107 40 115
1108 40 115
1109 10 109.47
1110 55 108.5
1111 100 126
1112 35 92.07
1113 150 96.7
1114 35 120
1115 35 120
1116 43.6 109.5
1117 35 123.2
1118 35 112.5
1119 43.6 106.4
1120 43.6 106.4
1121 35 120
1122 35 110.2
1123 100 111
1124 30 110
1125 28 110.5
1126 33 109
1127 35 111
1128 35 111
1129 25 110.5
1130 35 110.5
1131 150 120
1132 150 120
1133 150 120
1134 150 120
1135 150 120
1136 150 128
1137 150 128
1138 150 128
1139 150 128
1140 150 128
1141 150 128
1142 150 128
1143 150 128
1144 150 128
1145 150 120
1146 150 120
1147 150 120
1148 150 120
1149 150 120
1150 150 120
1151 150 120
1152 150 120
1153 150 120
1154 150 120
1155 150 120
1156 150 120
1157 150 120
1158 150 120
1159 150 180
1160 150 126
1161 150 126
1162 150 126
1163 150 126
1164 150 134
1165 150 134
1166 150 134
1167 150 134
1168 10 160
1169 10 160
1170 150 96.7
1171 70 120
1172 70 116
1173 70 119.3
1174 70 119.3
1175 70 116
1176 70 126.65
1177 150 180
1178 35 120
1179 35 116
1180 63 119.8
1181 63 115.7
1182 63 116.2
1183 70 123.3
1184 70 123.3
1185 70 107.7
1186 70 126.2
1187 35 123.05
1188 70 113.9
1189 70 120
1190 35 119.1
1191 70 123.3
1192 70 120
1193 70 120
1194 70 110.75
1195 70 111.6
1196 70 125
1197 70 125
1198 70 106.7
1199 70 114
1200 70 110.5
1201 70 126.2
1202 70 120
1203 63 109.6
1204 70 107.7
1205 60 121.5
1206 65 122
1207 60 120
1208 65 122
1209 65 122
1210 70 118.6
1211 80 120.6
1212 10 125
1213 70 126.2
1214 35 123.05
1215 70 125
1216 70 112.2
1217 70 126.1
1218 70 126.2
1219 70 115
1220 70 115
1221 70 115
1222 70 120
1223 70 115
1224 70 113.6
1225 70 111.9
1226 70 118.9
1227 70 118.9
1228 35 118.9
1229 70 124.5
1230 70 111.9
1231 70 118.9
1232 70 118.4
1233 70 118.4
1234 56 111.4
1235 56 113.1
1236 56 119.3
1237 10 125
1238 70 107
1239 70 109.4
1240 70 110
1241 70 114
1242 56 113.1
1243 70 101.3
1244 70 103.4
1245 70 101.3
1246 10 125
1247 70 87.6
1248 10 130
1249 70 126.3
1250 70 116
1251 70 116
1252 75 120
1253 35 116
1254 70 116
1255 70 124.1
1256 70 118
1257 70 120
1258 70 120
1259 70 117
1260 70 117
1261 70 129.1
1262 70 118
1263 70 115.5
1264 70 129.1
1265 35 116
1266 35 122
1267 70 118.6
1268 80 122.5
1269 100 180
1270 70 105.8
1271 80 122.9
1272 10 109.5
1273 35 109.5
1274 35 121.6
1275 50 114.7
1276 70 116
1277 70 116
1278 80 120.4
1279 35 106
1280 62 102
1281 63 119.8
1282 63 115.7
1283 63 116.2
1284 70 107.7
1285 35 121.6
1286 70 111.8
1287 10 90
1288 80 110
1289 80 113
1290 35 109.5
1291 55 109
1292 70 91
1293 80 134
1294 70 116
1295 70 119.3
1296 35 119.1
1297 70 123.3
1298 80 109.7
1299 50 109.5
1300 70 117
1301 70 114.2
1302 80 122.9
1303 70 127
1304 49 105.4
1305 70 104.5
1306 100 103
1307 100 103
1308 20 109.5
1309 20 109.5
1310 70 126.2
1311 70 113.9
1312 80 109.5
1313 35 123.05
1314 70 113.9
1315 70 120
1316 35 119.1
1317 70 120
1318 50 109.5
1319 50 109.5
1320 70 115.4
1321 70 118.6
1322 80 120.9
1323 80 126
1324 140 119.9
1325 45 108.23
1326 100 108.23
1327 60 117.1
1328 60 117.1
1329 70 109.8
1330 35 113.4
1331 60 116.8
1332 60 115
1333 60 115.9
1334 60 116.3
1335 60 116.8
1336 35 109.5
1337 65 127.7
1338 65 130
1339 10 109.47
1340 45 102.6
1341 45 102.6
1342 75 96.4
1343 75 96.4
1344 80 125
1345 80 120
1346 92.6 104.5
1347 70 110.6
1348 35 114.5
1349 50 109.5
1350 35 109.5
1351 92.6 111.55
1352 92.6 111.55
1353 70 110
1354 60 130
1355 81 111.4
1356 81 111.4
1357 81 111.4
1358 45 102.6
1359 62 107
1360 62 107
1361 60 110
1362 150 180
1363 74 107.2
1364 74 108.9
1365 62 106.2
1366 74 108.9
1367 120 107
1368 74 108.7
1369 104 119
1370 104 123
1371 74 107
1372 10 90
1373 75 119
1374 75 119
1375 35 123
1376 70 127.5
1377 80 126
1378 80 121
1379 83 123.4
1380 80 126
1381 160 180
1382 100 108.23
1383 100 108.23
1384 85 119.4
1385 100 120.5
1386 35 127
1387 63 121.7
1388 70 121.4
1389 70 121.4
1390 70 111
1391 70 121.4
1392 70 111
1393 70 121.1
1394 35 120
1395 70 120.8
1396 70 120.3
1397 60 120.3
1398 65 121.6
1399 65 121.6
1400 35 125
1401 70 125
1402 65 130
1403 10 109.47
1404 85 119.4
1405 50 109.5
1406 35 109.5
1407 35 115
1408 50 120
1409 74 110
1410 35 109.5
1411 35 110.9
1412 40 117
1413 20 145
1414 85 119.4
1415 70 111
1416 85 119.4
1417 85 119.4
1418 85 119.4
1419 70 125
1420 70 120.2
1421 70 125
1422 65 130
1423 70 111
1424 35 125
1425 70 125
1426 140 180
1427 30 79.2
1428 55 104.52
1429 55 109.47
1430 55 103.6

Dihedral Coeffs # opls

1 0 0 0 0
2 0 3.35 0 0
3 0 13.05 0 0
4 0 0 0 0
5 0 0 0 0
6 0 0 0 0
7 0 7.25 0 0
8 0 7 0 0
9 0 7.25 0 0
10 0 6 0 0
11 0 7.25 0 0
12 0 10 0 0
13 0 10 0 0
14 0 10 0 0
15 0 14 0 0
16 0 2.17 0 0
17 0 2.17 0 0
18 0 2.17 0 0
19 0 7.25 0 0
20 0 10 0 0
21 0 10 0 0
22 0 10 0 0
23 0 7.25 0 0
24 0 7.25 0 0
25 0 10.75 0 0
26 0 10.75 0 0
27 0 3 0 0
28 0 2.8 0 0
29 0 10 0 0
30 0 0 0 0
31 0 0 0 0
32 0 0 0 0
33 0 0 0 0
34 0 0 0 0
35 0 14 0 0
36 0 7 0 0
37 0 7.25 0 0
38 0 3.05 0 0
39 0 4.65 0 0
40 0 5 0 0
41 0 10 0 0
42 0 7.25 0 0
43 0 7.25 0 0
44 0 7.25 0 0
45 0 4.8 0 0
46 0 10 0 0
47 0 7.25 0 0
48 0 7.25 0 0
49 0 7.25 0 0
50 0 7.25 0 0
51 0 7.25 0 0
52 0 7.25 0 0
53 0 2.17 0 0
54 0 2.17 0 0
55 0 2.17 0 0
56 0 0 0 0
57 0 0 0 0
58 0 0 0 0
59 0 2.133 0 0
60 0 0 0 0
61 0 0 0 0
62 0 2.133 0 0
63 0 0 0 0
64 0 0 0 0
65 0 0 0 0
66 0 0 0 0
67 0 0 0 0
68 0 0 0 0
69 0 0 0 0
70 0 0 0 0
71 0 0.82 0 0
72 0 0.82 0 0
73 -1.697 -0.456 0.585 0
74 0 7 0 0
75 0 7 0 0
76 0 7.25 0 0
77 0 7.25 0 0
78 0 7.25 0 0
79 0 7.25 0 0
80 0 0 0 0
81 0 0 0 0
82 0 10.75 0 0
83 0 10.75 0 0
84 0 7.25 0 0
85 0 7.25 0 0
86 0 5 0 0
87 0 5 0 0
88 0 7.25 0 0
89 0 7.25 0 0
90 0 7.25 0 0
91 0 7.25 0 0
92 0 7.25 0 0
93 0 0 0 0
94 0 7.25 0 0
95 0 0 0 0
96 0 0 0 0
97 0 10.75 0 0
98 0 7.25 0 0
99 0 7 0 0
100 0 7 0 0
101 0 7.25 0 0
102 0 7.25 0 0
103 0 2.17 0 0
104 0 2.17 0 0
105 0 10 0 0
106 0 10 0 0
107 0 10.75 0 0
108 0 7 0 0
109 0 7 0 0
110 0 5 0 0
111 0 5 0 0
112 0 7.25 0 0
113 0 7.25 0 0
114 0 7.25 0 0
115 0 0.61 0 0
116 0 10.75 0 0
117 0 10.75 0 0
118 0 -0.576 0 0
119 1 -0.35 0 0
120 0 -1.876 0 0
121 1.5 -1.5 0 0
122 0 7.25 0 0
123 0 0 0 0
124 0 7.25 0 0
125 1 -0.35 0 0
126 1.5 -1.5 0 0
127 0 10.75 0 0
128 0 3.8 0 0
129 0 3.8 0 0
130 0.85 2.66 0 0
131 0 7.25 0 0
132 -0.5 -1.5 1 0
133 0 10.75 0 0
134 0 7.25 0 0
135 0 0 0 0
136 0 0 0 0
137 0 0 0 0
138 0 0 0 0
139 -0.714 0 0 0
140 0 0 0 0
141 0 0 -0.48 0
142 0 2.1 0 0
143 0 0 0 0
144 0 0 0 0
145 0 0 0 0
146 0 0 0 0
147 0 0 0 0
148 0 0 0 0
149 0 0 0 0
150 0 0 0 0
151 0 -0.4 0 0
152 0 -0.4 0 0
153 0 0.45 0 0
154 0 0.45 0 0
155 0 10 0 0
156 0 10 0 0
157 0 7.25 0 0
158 0 7.25 0 0
159 0 0 0 0
160 0 0 0 0
161 0 0 0 0
162 0 0 0 0
163 0 0 0 0
164 0 0 0 0
165 0 0 0 0
166 0 0 0 0
167 0 5 0 0
168 0 5 0 0
169 0 5 0 0
170 0 7.25 0 0
171 0 0 0 0
172 0 7.25 0 0
173 0 7.25 0 0
174 0 7.25 0 0
175 0 0 0 0
176 -0.506 0.975 0 0
177 0 0 0.462 0
178 -0.588 1.02 0.665 0
179 0 7.25 0 0
180 -2.5 1.25 3.1 0
181 -2.5 1.25 3.1 0
182 -2.5 1.25 3.1 0
183 0.5 0 0 0
184 0 2.17 0 0
185 0 2.17 0 0
186 0 2.17 0 0
187 0 2.17 0 0
188 0 2.17 0 0
189 0 2.17 0 0
190 0 7.25 0 0
191 0 7.25 0 0
192 0 7.25 0 0
193 0 0 0 0
194 0 0 0 0
195 0 0 0 0
196 0.5 0 0 0
197 0.5 0 0 0
198 0 2.17 0 0
199 0.9 0.23 -0.505 0
200 0 7.25 0 0
201 0 7.25 0 0
202 0 7.25 0 0
203 1.3 -0.5 0 0
204 0.9 0.23 -0.505 0
205 2.366 -0.262 0.505 0
206 1.3 -0.5 0 0
207 -1.336 0 0 0
208 1.3 -0.5 0 0
209 0 14 0 0
210 -0.521 -2.018 1.996 0
211 0 2.17 0 0
212 0 2.17 0 0
213 0 14 0 0
214 -3.323 0.529 0 0
215 0 7.25 0 0
216 0 7.25 0 0
217 0 7.25 0 0
218 0 7.25 0 0
219 0 7.25 0 0
220 0 7.25 0 0
221 0 7.25 0 0
222 0 10.75 0 0
223 0 0 0.3 0
224 0 0 0.419 0
225 0 0 0.76 0
226 0 0 0 0
227 0 14 0 0
228 0 2.17 0 0
229 0 2.17 0 0
230 0 2.17 0 0
231 0 2.17 0 0
232 0 2.17 0 0
233 0 2.17 0 0
234 0 7.25 0 0
235 0 7.25 0 0
236 2.055 0.529 0.544 0
237 0 0 0.562 0
238 0 2.17 0 0
239 0 2.17 0 0
240 0 7 0 0
241 0 7 0 0
242 0 0 0 0
243 0 0 0 0
244 0 7.25 0 0
245 0 7.25 0 0
246 0 7.25 0 0
247 0 7.25 0 0
248 0 7.25 0 0
249 0 7.25 0 0
250 -2 0.5 3.25 0
251 -3.4 1.25 3.1 0
252 -2 0.7 3 0
253 0.3 0 1.3 0
254 -3.4 1.25 3.1 0
255 0.3 0 0.5 0
256 -3.4 1.25 3.1 0
257 0 0 0.2 0
258 -2 0.5 3.25 0
259 -3.4 1.25 3.1 0
260 -3.4 1.25 3.1 0
261 -2 0.7 3 0
262 0.3 0 1.3 0
263 -7.4 3 1.8 0
264 -8.4 3 1.8 0
265 0.3 0 0.5 0
266 0 0 0.2 0
267 0 2.01 0 0
268 0 1.49 0 0
269 0 1.33 0 0
270 0 2 0 0
271 0 1.59 0 0
272 0 1.49 0 0
273 0 1.49 0 0
274 0 1.49 0 0
275 0 1.49 0 0
276 0 2 0 0
277 0 3.01 0 0.22
278 0 1.73 0 0
279 0 1.47 0 -0.07
280 0.346 0.405 -0.904 0
281 0 7.25 0 0
282 0 7.25 0 0
283 0 7.25 0 0
284 0.346 0.405 -0.904 0
285 -3.5 3 0 0
286 -0.9 0 0 0
287 0 14 0 0
288 0 7.25 0 0
289 0 7.25 0 0
290 0 1.65 0 -0.05
291 0 1.6 0 -0.18
292 0 2.01 0 0
293 0 7.25 0 0
294 0 1.49 0 0
295 0 1.33 0 0
296 0 2 0 0
297 0 1.59 0 0
298 0 2.17 0 0
299 0 2.17 0 0
300 0 1.49 0 0
301 0 1.49 0 0
302 0 1.49 0 0
303 0 2.17 0 0
304 0 1.59 0 0
305 0 2.17 0 0
306 0 1.49 0 0
307 0 2 0 0
308 0 2.17 0 0
309 0 3.01 0 0.22
310 0 1.73 0 0
311 0 2.17 0 0
312 0 2.17 0 0
313 0 2.17 0 0
314 0 2.17 0 0
315 0 7.25 0 0
316 0 1.47 0 -0.07
317 0 1.76 0 0
318 0 2.17 0 0
319 0 1.76 0 0.23
320 0 2.17 0 0
321 0 14 0 0
322 0 14 0 0
323 0 0 0 0
324 0 7.25 0 0
325 0 7.25 0 0
326 0 7.25 0 0
327 0 0 0 0
328 0 7.25 0 0
329 0 7.25 0 0
330 0 7.25 0 0
331 0 7.25 0 0
332 0 7.25 0 0
333 0 7.25 0 0
334 0 7.25 0 0
335 0 7.25 0 0
336 0 7.25 0 0
337 0 7.25 0 0
338 0 7.25 0 0
339 0 7.25 0 0
340 0 0 0 0
341 0 0 0.4 0
342 0 1.1 2.59 0.47
343 0 0 0 0
344 0 0 0 0
345 0 0 -0.372 0
346 0 0.2 0 0
347 0 0.2 0 0
348 0 1.1 0 0
349 0 2.1 0 0
350 0 2.1 0 0
351 0 2.1 0 0
352 0 0 0 0
353 0 2.133 0 0
354 0 1.15 0 0
355 0 2.1 0 0
356 0 2.1 0 0
357 0 3.88 0 0.15
358 0 2.1 0 0
359 0 2.133 0 0
360 0 0 0 0
361 0 2.1 0 0
362 0 2.1 0 0
363 0 2.1 0 0
364 0 2.1 0 0
365 0 2.1 0 0
366 0 2.1 0 0
367 0 2.5 0 0
368 0 2.99 0 0
369 0 0.61 0 0
370 0 -0.9 0 0
371 1.656 -0.768 -0.117 0
372 0 0 0.26 0
373 0 7.25 0 0
374 0 7.25 0 0
375 0 14 0 0
376 -1.697 -0.456 0.585 0
377 1 0 0 0
378 -0.8 0 0 0
379 0 0.546 0 0
380 0.75 0 0 0
381 0 0 0 0
382 2.25 0 0 0
383 0 0 0 0
384 0 0 0 0
385 0 0 0 0
386 0 14 0 0
387 0 14 0 0
388 0 14 0 0
389 0 14 0 0
390 2.3 6.089 0 0
391 2.3 6.089 0 0
392 2.3 6.089 0 0
393 0 4.9 0 0
394 4 5 0 0
395 4 5 0 0
396 0 7.25 0 0
397 0 7.25 0 0
398 0 7.25 0 0
399 0 7.25 0 0
400 0 0 0 0
401 0 0 0 0
402 3.25 2.16 1.28 0.36
403 0.5 0 0 0
404 0 0 0 0
405 2 0 0 0
406 0 7.25 0 0
407 0 2.133 0 0
408 0 7.25 0 0
409 0 7.25 0 0
410 0.5 0 0 0
411 0 0 0 0
412 6.622 0.948 -1.388 -2.118
413 0.3 0 0.4 0
414 -3.4 1.25 3.1 0
415 -3.4 1.25 3.1 0
416 0.3 0 1.3 0
417 -1 -0.35 0 0
418 2.756 -0.872 -3.68 0
419 -1.5 -1.5 0 0
420 -1 -0.35 0 0
421 -1.5 -1.5 0 0
422 3.132 -1.491 2.744 0
423 1.423 4.055 0.858 0
424 0 0 -0.372 0
425 0 0 -0.372 0
426 0 3.431 0 0
427 0.797 4.193 -0.564 -0.282
428 0 0 -0.372 0
429 0 0 -0.372 0
430 3.2 -3 0 0
431 2.5 6 0 0
432 0 7.25 0 0
433 0 3.431 0 0
434 0.797 4.193 -0.564 -0.282
435 -2 4.2 -0.35 0
436 0.346 0.405 -0.904 0
437 0.5 0 0 0
438 0 3.431 0 0
439 -0.7 3.6 0 0
440 0 3.2 -1.3 0
441 0 0 0 0
442 2 0 0 0
443 2 0 0 0
444 3.2 -3 0 0
445 2.5 6 0 0
446 -3.5 5 0 0
447 -3.5 3 0 0
448 -0.9 0 0 0
449 0 0 0 0
450 0 0 0 0
451 0 4.9 0 0
452 0 7.25 0 0
453 0 0 0 0
454 0 0 0 0
455 -1 -0.35 0 0
456 3.42 0.2 -2.51 0
457 -1.5 -1.5 0 0
458 0 7.25 0 0
459 0 7.25 0 0
460 0 7.25 0 0
461 -1 -0.35 0 0
462 -1.5 -1.5 0 0
463 0 7.25 0 0
464 0 7.25 0 0
465 0 0.61 0 0
466 2.75 1.21 1.09 0
467 0 1.1 0 0
468 0 2.1 0 0
469 0 2.1 0 0
470 2.75 1.21 1.09 0
471 0 0 0 0
472 0.08 -0.16 -0.33 0.43
473 0 1.5 0 0
474 0.75 1.5 0 0
475 0 5 0 0
476 0 3.88 0 0.15
477 0 2.133 0 0
478 0 7.25 0 0
479 0 0.61 0 0
480 2.3 6.089 0 0
481 2.3 6.089 0 0
482 2.3 6.089 0 0
483 0 4.9 0 0
484 -3.4 1.25 3.1 0
485 0.9 0.23 -0.505 0
486 0 0 0.3 0
487 0 0 0.3 0
488 0 0 0.3 0
489 0 7.25 0 0
490 0 7.25 0 0
491 0 14 0 0
492 0 14 0 0
493 0 14 0 0
494 0.205 -0.531 0 0
495 0 14 0 0
496 0 14 0 0
497 0 14 0 0
498 0 14 0 0
499 2.817 -0.169 0.543 0
500 0 0 0 0
501 0 7.25 0 0
502 0 7.25 0 0
503 0 -1 0 0
504 0 -1 0 0
505 0 0.15 0 0
506 0 0 0.418 0.183
507 0 0.5 -0.5 0
508 0 0 0.4 0
509 0 0 0 0
510 0.85 -0.2 0.2 0
511 1.1 -0.2 0.2 0
512 0.85 -0.2 0.2 0
513 0 -0.65 0 0
514 0 0 0.4 0
515 -0.885 1.025 -1.293 0
516 -1.267 0.479 -0.486 0
517 -1.697 -0.456 0.585 0
518 -3.185 -0.825 0.493 0
519 0.3 -0.4 0.4 0
520 0 0 0.4 0
521 2.732 -0.229 0.485 0
522 2.392 -0.674 0.55 0
523 -1.552 0 0 0
524 2 -0.2 0 0
525 1.3 -0.5 0 0
526 1.262 -0.198 0.465 0
527 1.262 -0.198 0.465 0
528 0.4 0 0.2 0
529 -1.565 -0.009 -0.45 0
530 1.244 0 0.167 0
531 0 0 0 0
532 0 0 0 0
533 1.454 -0.144 -0.775 0
534 0 0 0 0
535 0 0 0 0
536 0 0 0 0
537 1.494 -0.511 0.125 0
538 5.029 0.719 2.24 0
539 3.26 0.44 0.6 0
540 2.844 -0.361 -0.325 0
541 1.779 0.419 -0.11 0
542 0 1 1.35 0
543 0 1.412 0 0
544 1 0.546 0.45 0
545 0 0 -0.553 0
546 1.656 1.304 0.439 0
547 -1 -1.9 -0.9 0
548 -0.277 1.228 -0.694 0
549 -0.75 -0.55 -0.25 0
550 0 0.546 0 0
551 0.406 1.304 0.139 0
552 0 0 0 0
553 1.829 0.243 -0.498 0
554 -0.19 -0.417 0.418 0
555 -0.19 -0.417 0.418 0
556 1.4379 -0.1238 0.2639 0
557 0 0 0.347 0
558 0 0 0 0
559 2.859 2.058 -11.266 0
560 0 0.4 0 0
561 1.522 -0.417 0.418 0
562 0.819 -0.417 0.418 0
563 0.2 -0.417 0.418 0
564 0 4 0 0
565 -0.19 -0.417 0.418 0
566 2.859 2.058 -11.266 0
567 2.929 -2.533 0.497 0
568 2.674 -2.883 1.026 0
569 -0.5 0.2 0.3 0
570 -1.22 -0.126 0.422 0
571 -1.42 -0.62 0.1 0
572 1 -0.5 0.5 0
573 -0.759 -0.282 0.68 0
574 0 0 0 0
575 0 0 0 0
576 0.8 0 0.2 0
577 0 0 0.26 0
578 0.925 -0.576 0.677 0
579 1.941 -0.836 0.935 0
580 0 7.25 0 0
581 0 0.5 0 0
582 0 0 0 0
583 0 0 0 0
584 0 0 0 0
585 0 0 0 0
586 0 0 0 0
587 0 0 0.3 0
588 0 0 0.3 0
589 0.205 -0.531 0 0
590 0 14 0 0
591 0 14 0 0
592 0.8 -3 0 0
593 0.7 -1.5 0 0
594 0 14 0 0
595 0 4.9 0 0
596 2.3 6.089 0 0
597 2.3 6.089 0 0
598 0 4.9 0 0
599 4.542 6.603 1.045 0
600 3.2 4.9 0 0
601 1.5 5.5 0 0
602 1.5 5 0 0
603 4.669 5.124 0 0
604 0 7.936 0 0
605 0 0 0 0
606 0 0 0 0
607 0 7.25 0 0
608 0 0 0 0
609 4.753 -0.734 0 0
610 -1.737 1.251 -3.501 0
611 0 0 0 0
612 0 5 0 0
613 0 5 0 0
614 -1.1 0.12 0 0.6
615 1.464 -0.128 0.695 0
616 1.536 -0.128 0.695 0
617 0.416 -0.128 0.695 0
618 0.416 -0.128 0.695 0
619 0 0 0.3 0
620 0 0 0.3 0
621 0 0 0.3 0
622 0 0 0.3 0
623 0 3.651 0 0
624 4.753 -0.734 0 0
625 -1.737 1.251 -3.501 0
626 0 0 0 0
627 2.074 -2.966 2.473 0
628 0 3.37 0 0.3
629 0 4.7 0 0
630 0.25 -0.25 0.5 0
631 0.25 -0.25 0.5 0
632 -0.375 -1.358 0.004 0
633 -0.375 -1.358 0.004 0
634 0.61 0 0.5 0
635 0 5.2 0 0
636 0.25 -0.25 0.5 0
637 0 3.37 0 0.3
638 1.165 0.285 0 0
639 3.5 -3.3 1.5 0
640 0.5 0 0 0
641 0 0 0 0
642 -0.75 0 0 0
643 0 0 0.18 0
644 0 0 0.18 0
645 1 0 0 0
646 1 -0.2 0 0
647 0 0 0.1 0
648 0 2.151 0 0.295
649 1.51 4 0.7 0
650 0.33 -2.3 0.275 0
651 0 4.8 0 0
652 0 2.66 0 0.326
653 0.556 -3.865 0 0
654 0 -7.414 1.705 0
655 0 7.25 0 0
656 0 7.25 0 0
657 1.5 1.5 0.87 0
658 0 7.25 0 0
659 0 7.25 0 0
660 0 1.1 0 0
661 0 2.1 0 0
662 0 2.1 0 0
663 -0.4 -0.3 0.5 0
664 0 0 0 0
665 0 3 0 0
666 2.3 6.089 0 0
667 2.3 6.089 0 0
668 2.3 6.089 0 0
669 1.82 -0.78 -1.92 0
670 0 5 0 0
671 0 5 0 0
672 0 1.28 0.65 -0.23
673 0 7.25 0 0
674 0 7.25 0 0
675 0 7.25 0 0
676 0 7.25 0 0
677 0 7.25 0 0
678 0 7.25 0 0
679 0 1.9 0 0
680 -0.7 4.3 1.1 0
681 1 2 1 0
682 0 1.9 0 0
683 -0.129 -0.71 2.18 0
684 0 0 0 0
685 0 0 0 0
686 0 0 0 0
687 0 0 0 0
688 2.3 6.089 0 0
689 2.3 6.089 0 0
690 2.3 6.089 0 0
691 0 4.9 0 0
692 2.3 6.089 0 0
693 0 14 0 0
694 0 14 0 0
695 0 0 0 0
696 0 0 0 0
697 0 0 0 0
698 -1.6 14 0 0
699 0 14 0 0
700 0 -0.4 0 0
701 -0.25 0 0 0
702 0.65 0 0 0
703 -0.65 0 0 0
704 0 2.01 0 0
705 0 1.49 0 0
706 0 1.33 0 0
707 0 2 0 0
708 0 1.59 0 0
709 0 1.49 0 0
710 0 1.49 0 0
711 0 1.49 0 0
712 0 1.49 0 0
713 0 2 0 0
714 0 3.01 0 0.22
715 0 1.73 0 0
716 0 1.47 0 -0.07
717 0 14 0 0
718 0 14 0 0
719 0 7.25 0 0
720 0 7.25 0 0
721 1.423 4.055 0.858 0
722 0 0 -0.372 0
723 0 0 -0.372 0
724 1.241 3.353 -0.286 0
725 0.346 0.405 -0.904 0
726 0 14 0 0
727 0 14 0 0
728 0 14 0 0
729 1.423 4.055 0.858 0
730 0 14 0 0
731 3.2 -3 0 0
732 2.5 6 0 0
733 0 7.25 0 0
734 0 14 0 0
735 0 14 0 0
736 0 14 0 0
737 -1.406 1.777 0 0
738 -4.16 -0.76 0.96 0.16
739 -1.971 0.77 0 0
740 -2.538 0.911 0 0
741 -1.764 0.7 0 0
742 -0.911 0.699 0 0
743 -1.422 1.068 0 0
744 2.994 0.252 0.3 0
745 -1.751 1.606 0 0
746 -1.751 1.606 0 0
747 -2.06 -0.313 0.315 0
748 -1.282 1.645 -0.017 0
749 -1.282 1.645 -0.017 0
750 -1.708 1.516 -0.502 0
751 0.598 1.558 0.255 0
752 1.543 0.696 0 0
753 0.8 0 0.9 0
754 -0.55 0 1 0
755 0 0 0.074 0
756 -5.793 0.405 0 0
757 0 0 0.085 0
758 0.4 4.9 0 0
759 3 5.5 0 0
760 0 1.3 2.2 0
761 3 3 0 0
762 3 3 0 0
763 -1.396 -0.427 0 0
764 0 0 -0.139 0
765 1.13 -1.42 0.44 0
766 -1.396 -0.427 0 0
767 -0.682 0.13 0.338 0
768 -2.511 0.21 -0.2 0
769 0 0 -0.139 0
770 0 0 0 0
771 -0.71 2.1 -1.83 0
772 -1.396 -0.427 0 0
773 -1.396 -0.427 0 0
774 5.519 -6.7 0.581 0
775 0 0 0.198 0
776 -2.5 0 0.25 0
777 0 0.45 0 0
778 -1 0 0.25 0
779 -2.5 0 0.25 0
780 0 0 0.3137 0
781 0 0 0.5401 0
782 0 0 0 0
783 0 0 0.3 0
784 0 7.25 0 0
785 0 7.25 0 0
786 0 7.25 0 0
787 0 7.25 0 0
788 0 7.25 0 0
789 0 7.25 0 0
790 0 7.25 0 0
791 0 7.25 0 0
792 0 7.25 0 0
793 0 7.25 0 0
794 0 7.25 0 0
795 0 7.25 0 0
796 0 7.25 0 0
797 0 7.25 0 0
798 0 7.25 0 0
799 0 7.25 0 0
800 0 7.25 0 0
801 0 7.25 0 0
802 0 7.25 0 0
803 0 7.25 0 0
804 0 7.25 0 0
805 0 7.25 0 0
806 0 10.75 0 0
807 0 10.75 0 0
808 0 5 0 0
809 0 5 0 0
810 0 5 0 0
811 0 7.25 0 0
812 0 7.25 0 0
813 0 0 0.3 0
814 0 0 0 0
815 0 0 0 0
816 0 0 0.3 0
817 0 0 0.3 0
818 0 0 -0.372 0
819 0 14 0 0
820 0 14 0 0
821 0 14 0 0
822 0 0 0 0
823 0 14 0 0
824 0 14 0 0
825 0 14 0 0
826 0 0 0 0
827 0 0 0.3 0
828 0 0 0.318 0
829 0 0 0 0
830 0 0 0 0
831 0 0 0 0
832 0 0 0 0
833 0 0 0.76 0
834 0 0 0 0
835 0 0 0.3 0
836 0 0 0.76 0
837 0 0 -0.372 0
838 0 0 -0.372 0
839 0 0 -0.372 0
840 0 0 0 0
841 0 0 -0.372 0
842 0 0 -0.372 0
843 0 0 0.3 0
844 0 0 -0.25 0
845 0 0 0.3 0
846 0 0 0.4 0
847 0 0 0.462 0
848 0 0 0.462 0
849 0 0 0.366 0
850 0 0 0.3 0
851 0 0 0.462 0
852 0 0 0.462 0
853 0 0 0.462 0
854 0 0 0.3 0
855 0 0 0.462 0
856 0 0 0.462 0
857 0 0 0.462 0
858 0 0 0.366 0
859 0 0 0.4 0
860 0 0 0.366 0
861 0 0 -0.1 0
862 0 0 -0.076 0
863 0 0 0.4 0
864 0 0 0.3 0
865 0 0 0.4 0
866 0 0 -0.582 0
867 0 0 0.384 0
868 0 0 -0.225 0
869 -1.013 -0.709 0.473 0
870 0 0 0.3 0
871 0 0 0.3 0
872 0 0 0.3 0
873 0 0 0.452 0
874 0 0 0.35 0
875 0 0 0.452 0
876 0 0 0.452 0
877 0 0 0.34 0
878 0 0 0.3 0
879 0 0 0.3 0
880 0 0 0 0
881 0 0 0.3 0
882 0 0 -0.372 0
883 0 0 0.36 0
884 0 0 0.275 0
885 0 0 0.275 0
886 0 0 0.36 0
887 0 0 0.36 0
888 0 0 0.36 0
889 0 0 0 0
890 0 0 0 0
891 0 0 0 0
892 0 0 0 0
893 0 0 0.132 0
894 0 0 0 0
895 0 0 0 0
896 0 0 0.177 0
897 0 0 0 0
898 0 0 0.462 0
899 0 0 0.3017 0
900 0 0 0.261 0
901 0 0 0 0
902 0 0 0 0
903 0 0 0.56 0
904 0 0 0.56 0
905 0 0 0.4 0
906 0 0 0 0
907 0 0 0 0
908 1.362 -1.457 0.149 0
909 0 0 0.476 0
910 -2.589 -1.123 0.27 0
911 0 0 0.3524 0
912 0 0 0.76 0
913 0 0 0.76 0
914 0 0 0.76 0
915 0 0 0.18 0
916 0 0 0.3 0
917 0 0 0.25 0
918 0 0 0.25 0
919 0 0 0.48 0
920 0 0 0.35 0
921 0 0 0.35 0
922 0 0 0.35 0
923 0 0 0.35 0
924 0 0 0.18 0
925 0 0 0.18 0
926 0 0 0.18 0
927 0 0 0.14 0
928 0 0 0.647 0
929 0 0 0.647 0
930 0 0 0.558 0
931 0 0 0 0
932 0 0 0 0
933 0 0.5 0 0
934 0 0.5 0 0
935 0 0 0 0
936 0 0 0 0
937 0 0 0 0
938 0 0 0 0
939 0 0 0 0
940 0 0 0 0
941 0 0 0 0
942 0 0 0 0
943 0 0 0 0
944 0 0 0 0
945 0 0 0 0
946 0 0 0 0
947 0 0 0 0
948 0 0 0 0
949 0 0 0 0
950 0 0 0.318 0
951 0 14 0 0
952 0 14 0 0
953 0 14 0 0
954 0.8 -0.76 0 0
955 0.8 0 0 0
956 0 0 0.3 0
957 0 0 0 0
958 0 14 0 0
959 2.3 6.089 0 0
960 0 4.9 0 0
961 1.5 5.5 0 0
962 4.669 5.124 0 0
963 0 0 0 0
964 0 2.06 0 0
965 0 3.692 0 0
966 0 1.682 0 0
967 0 2.06 0 0
968 2.63 -1 0.34 0
969 4.478 -2.1746 0 0
970 0 2.06 0 0
971 0 -1.5 0.1 0
972 0.79 -3.58 0.3 0
973 -0.95 -4.1 0 0
974 0.59 -2.5 0.46 0
975 0 3.9 0 0
976 0 3.9 0 0
977 0 1.87 0 -0.18
978 0 5 0 0
979 0 5 0 0
980 0 5 0 0
981 0 -1.19 0 0
982 0 -1.57 0 0
983 0 0 0.3 0
984 0 0 0.3 0
985 0 0 0.3 0
986 0 0 0 0
987 0 0 0 0
988 0 4.9 0 0
989 2.722 -5.154 0 0
990 1.671 -4.901 0.669 0
991 0 0 0.18 0
992 0 0 0.18 0
993 0 0 0.14 0
994 0 7.25 0 0
995 0 7.25 0 0
996 0 7.25 0 0
997 0 7.25 0 0
998 0 7.25 0 0
999 0 7.25 0 0
1000 0 7.25 0 0
1001 0 1.62 0 -0.44
1002 0 7.25 0 0
1003 2.91 1.83 1.21 0
1004 0.63 0.8 1.54 -0.74
1005 7.33 2.18 0.51 0
1006 4 2.13 1.6 0
1007 2.91 1.83 1.21 0
1008 7.33 2.18 0.51 0
1009 6.25 1.78 1.43 0
1010 -2 1 0 0
1011 2 1 0 0
1012 0.071 0 0.188 0
1013 1.1 -2.2 0.3 0
1014 1.75 -1.12 0 0.74
1015 0 -2.24 0 0
1016 0 1 0 0
1017 0 1 0 0
1018 0 2.1 0 0
1019 0 2.1 0 0
1020 0 2.1 0 0
1021 0 2.1 0 0
1022 0 2.1 0 0
1023 0 2.1 0 0
1024 0 2.1 0 0
1025 0 7.25 0 0
1026 0 7.25 0 0
1027 0 7.25 0 0
1028 0 0 0 0
1029 0 7.25 0 0
1030 0 7.25 0 0
1031 0 7.25 0 0
1032 0 2.84 0 0
1033 0 1.11 0 -0.13
1034 0 7.25 0 0
1035 0 7.25 0 0
1036 0 1.95 0 0
1037 0 2.65 0 0
1038 0 3.33 0 0
1039 0 1.03 0 0
1040 0 1.95 0 0
1041 0 1.95 0 0
1042 0 1.95 0 0
1043 0 1.03 0 0
1044 0 1.95 0 0
1045 0 3.33 0 0
1046 0 3.7 0 0
1047 0 2.29 0 0
1048 0 2.49 0 0
1049 0 2.17 0 0
1050 0 2.17 0 0
1051 0 0 0.1 0
1052 -0.92 5.1 0 0
1053 0 3.8 0 0
1054 -3.76 5.03 0.61 0.46
1055 0 6.089 0 0
1056 4.64 -1.27 0.45 0.08
1057 1.964 0 0.659 0
1058 0 0 0.464 0
1059 2 0 0 0
1060 11.035 -0.968 0.27 0
1061 8 0 0 0
1062 5.26 0.82 0 0
1063 0 7.25 0 0
1064 0 7.25 0 0
1065 0 7.25 0 0
1066 1.712 0.725 0.366 0
1067 0.103 0.653 0.563 0
1068 0.884 0.897 0.88 0
1069 1.987 0.457 0.82 0
1070 0.214 0.541 0.392 0
1071 1.964 0 0.659 0
1072 1.572 0.159 0.2 0
1073 1.572 0.159 0.2 0
1074 -0.542 0.435 0 0
1075 -0.542 0.435 0 0
1076 -3.038 0.419 0 0
1077 -5.501 1.527 0 0
1078 -7.89 0.662 0.997 0
1079 -9 2 0.8 0
1080 0 0 0.464 0
1081 6.258 -1.037 1.367 0
1082 -0.94 2.755 -2.67 0
1083 1.81 2.155 -0.47 0
1084 0 0 0 0
1085 -0.5 0.2 0 0
1086 -0.9 0.3 0 0
1087 0 0 0 0
1088 0 14 0 0
1089 0 14 0 0
1090 0 14 0 0
1091 0 14 0 0
1092 4.6 0 0 0
1093 2.3 6.089 0 0
1094 0 4.9 0 0
1095 -2 5 0 0
1096 -2 5 0 0
1097 0.9 -2.93 2.64 0
1098 0 0 0 0
1099 0 7.25 0 0
1100 0 2.1 0 0
1101 0 2.133 0 0
1102 0 2.1 0 0
1103 0 7.25 0 0
1104 0 7.25 0 0
1105 0.14 -0.09 0.54 0
1106 0 1.5 0 0
1107 -0.75 1.5 0 0
1108 0 -1.4 1.3 0.47
1109 0 2.1 0 0
1110 0 2.1 0 0
1111 1.3 -1 0.33 0
1112 1.5 -0.574 1.3 0
1113 1.2 -2.84 1.2 0
1114 9.066 0 0 0
1115 12.234 0 0 0
1116 9.508 0 0 0
1117 4.319 0 0 0
1118 0 7.25 0 0
1119 0 7.25 0 0
1120 0 7.25 0 0
1121 2.3 6.089 0 0
1122 0 4.9 0 0
1123 0 0 0 0
1124 -1.257 -1.806 0.003 0
1125 0 7.25 0 0
1126 0 7.25 0 0
1127 -0.55 0 0 0
1128 2.8 2.1 1.3 0
1129 0.34 -0.27 0.63 0
1130 2.3 6.089 0 0
1131 0 4.9 0 0
1132 4.669 5.124 0 0
1133 0 0 0 0
1134 0 0 0 0
1135 0 0 0 0
1136 0.75 0 0 0
1137 0 6.089 0 0
1138 0 6.089 0 0
1139 0 20 0 0
1140 0 4.9 0 0
1141 0 0.5 0 0
1142 0 0.2 0 0
1143 1.6 3.2 0 0
1144 0 4.9 0 0
1145 0 6.089 0 0
1146 0 6.089 0 0
1147 0 6.089 0 0
1148 0 6.089 0 0
1149 0 4.9 0 0
1150 0 6.603 0 0
1151 0 5 0 0
1152 0 5.5 0 0
1153 0 5 0 0
1154 0 5 0 0
1155 0 5.124 0 0
1156 0 0 0 0
1157 0 0 0 0
1158 0 0 0.3 0
1159 0 6.5 0 0
1160 0 6.5 0 0
1161 0 6.5 0 0
1162 -0.7 5 0 0
1163 0 5.5 0 0
1164 0 5 0 0
1165 0 10.75 0 0
1166 0 7.25 0 0
1167 0 10.75 0 0
1168 0 0.26 0.1 0
1169 0.97 0.08 0.14 0
1170 0 -1.04 0 0.23
1171 1.19 0 0.4 0
1172 0 7.25 0 0
1173 0 7.25 0 0
1174 0 2.1 0 0
1175 0 2.1 0 0
1176 0 2.1 0 0
1177 0 2.133 0 0
1178 0 2.1 0 0
1179 0 10.75 0 0
1180 0 10.75 0 0
1181 0 10.75 0 0
1182 0 2.1 0 0
1183 0 2.1 0 0
1184 0 7.25 0 0
1185 0 7.25 0 0
1186 0 7.25 0 0
1187 0 14 0 0
1188 0 14 0 0
1189 0 0 0.26 0
1190 5.2 -0.5 0 0
1191 0 0 0 0
1192 0 7.25 0 0
1193 0 7.25 0 0
1194 0 7.25 0 0
1195 0 7.25 0 0

Improper Coeffs # cvff

1 2.5 -1 2
2 15 -1 2
3 2.5 -1 2
4 10.5 -1 2

Atoms # full

104 8 728 5.9999999999999998e-02 1.0386747509343577e+01 1.8195751173656756e+00 1.0917956472316520e+01 0 0 0
118 10 723 2.0999999999999999e-01 9.4183213336671905e+00 2.8150554575699362e+00 2.0578509742328377e+00 0 1 -1
488 38 726 2.9999999999999999e-02 -1.4755945689412447e-01 6.2382415400839628e+00 2.8671528216864028e-01 2 0 1
538 42 722 -4.5000000000000001e-01 -2.0713819895820579e-01 2.0709390226095632e+00 1.8970364157386108e+00 0 0 1
831 64 728 5.9999999999999998e-02 4.5353114754002188e+00 2.1156788547005987e+00 3.7973846326609402e+00 0 0 1
123 10 726 2.9999999999999999e-02 8.5561041206439672e+00 2.3912595237562702e+00 1.5579153630701532e+00 0 1 -1
156 12 728 5.9999999999999998e-02 1.0471267282690292e+01 1.1698515345166660e+01 5.3472103853459907e-02 1 0 1
822 64 727 2.9999999999999999e-02 6.5376222675562135e+00 2.8080076485173966e+00 2.9146660289662778e+00 0 0 1
1108 86 727 2.9999999999999999e-02 5.6142820682389765e+00 8.4308915247130187e+00 9.0885810269958682e+00 0 1 0
90 7 728 5.9999999999999998e-02 3.8999169114478325e+00 1.1195656775368146e+01 7.5071627971634725e-01 0 0 0
161 13 722 -4.5000000000000001e-01 8.9007733930363440e+00 7.5491271490120955e+00 -7.4375193142026770e-03 1 1 0
92 8 723 2.0999999999999999e-01 8.4161963040518479e+00 -1.7038969403754392e-01 1.0293098348046724e+01 0 0 0
504 39 721 -5.0000000000000000e-01 1.0562366635051546e+01 8.9664719845461054e+00 3.7630021739721098e+00 -1 0 1
1107 86 724 1.6000000000000000e-01 6.3438851590904690e+00 7.7769924941256807e+00 8.5804518237322949e+00 0 1 0
492 38 728 5.9999999999999998e-02 2.4867281094921965e+00 6.4378753699319828e+00 2.0309863936677108e+00 2 0 1
163 13 726 2.9999999999999999e-02 1.0131885726429063e+01 9.0085825565183040e+00 5.1247840731296435e-01 1 1 0
667 52 721 8.5999999999999999e-01 1.0345836563352895e+01 1.1285846413979696e+01 1.1458507028311601e+01 0 0 1
435 34 726 2.9999999999999999e-02 9.8969542806845698e+00 4.1961666510051723e+00 1.1198333787041495e+01 0 0 0
501 39 726 2.9999999999999999e-02 1.0304037768179258e+01 4.7621670813281725e+00 4.3878761004989633e+00 -1 0 1
823 64 721 8.5999999999999999e-01 6.3673377936666222e+00 1.3763756672415304e+00 1.6441711385023441e-01 0 0 1
630 49 726 2.9999999999999999e-02 6.9046943714834681e+00 4.8913798327574041e+00 5.1510211739844880e-01 1 0 1
628 49 721 8.5999999999999999e-01 6.3457642121383744e+00 7.7053980141242437e+00 1.6975272306070981e+00 1 0 1
166 13 721 -5.0000000000000000e-01 9.8126683099283820e+00 5.8826869408660478e+00 5.1030064341673520e-01 1 1 0
659 51 725 -1.0000000000000001e-01 2.1851486912287768e+00 7.6115856707460621e+00 5.7785161712250739e+00 1 -1 0
84 7 726 2.9999999999999999e-02 2.3392708254120902e+00 1.0360752503551950e+01 4.0448115586764368e+00 0 0 0
627 49 727 2.9999999999999999e-02 4.1948783017618663e+00 5.8712337051472092e+00 7.8257517875943328e-01 1 0 1
653 51 727 2.9999999999999999e-02 1.1000217632606577e+00 6.2521928359803240e+00 7.0710190479755983e+00 1 -1 0
436 34 726 2.9999999999999999e-02 9.3379689890297719e+00 5.1772811194642596e+00 9.7245204118251145e+00 0 0 0
494 38 728 5.9999999999999998e-02 3.3765996372305924e+00 7.9224949408352243e+00 1.4952588771729813e+00 2 0 1
79 7 723 2.0999999999999999e-01 2.1145868104212413e+00 1.1410818883952340e+01 3.7062480433013767e+00 0 0 0
493 38 728 5.9999999999999998e-02 1.8679063186099363e+00 8.0261169618763724e+00 2.6204622953204892e+00 2 0 1
479 37 728 5.9999999999999998e-02 1.0308961826424927e+01 3.5604553147379252e+00 7.8469952078416361e+00 0 1 0
485 38 721 8.5999999999999999e-01 -4.5602202013578723e-02 9.4586664493744408e+00 9.8312633599246559e-03 2 0 1
498 39 721 8.5999999999999999e-01 9.9533982811511130e+00 7.6451145442992292e+00 3.6247148041157868e+00 -1 0 1
121 10 721 8.5999999999999999e-01 1.0820844621975057e+01 1.1893431155116205e+00 2.8392081564852174e+00 0 1 -1
141 11 728 5.9999999999999998e-02 1.7042072362580687e+00 1.5703932104758941e-01 2.2099039475993756e+00 1 1 0
537 42 721 8.5999999999999999e-01 4.7874906796630851e-01 2.9662941177762621e+00 1.1825377991638730e+00 0 0 1
420 33 721 8.5999999999999999e-01 3.7886727143272489e+00 1.8776051245508274e-01 9.4622888355955137e+00 0 1 0
1116 86 728 5.9999999999999998e-02 8.0535096111130002e+00 8.1613294834890144e+00 9.8739617008605673e+00 0 1 0
1106 86 723 2.0999999999999999e-01 5.8039923551137953e+00 7.8281900208180097e+00 7.1791510655125848e+00 0 1 0
91 7 728 5.9999999999999998e-02 3.4951541303013203e+00 9.9372613751401158e+00 1.8820754030420099e+00 0 0 0
205 16 721 -5.0000000000000000e-01 6.7707593569900295e+00 8.6077189951786004e-01 5.5660984596288037e+00 0 0 0
125 10 722 -4.5000000000000001e-01 1.1243946879050526e+01 1.5585440003160176e+00 1.6580354264437174e+00 0 1 -1
638 50 723 2.0999999999999999e-01 7.7446329705740347e+00 1.0760212473751553e+01 5.5581362688907339e+00 -1 1 -1
821 64 724 1.6000000000000000e-01 6.0195312153655953e+00 2.0660036204423036e+00 2.3250400705427414e+00 0 0 1
199 16 721 8.5999999999999999e-01 6.2240571132559621e+00 -2.4749522479806640e-01 6.4910622398535658e+00 0 0 0
520 40 728 5.9999999999999998e-02 5.7191120580946375e+00 6.9344124628020758e+00 1.1943340499304007e+01 0 1 0
1113 86 722 -4.5000000000000001e-01 6.1932305162279455e+00 6.4652689648124513e+00 9.0140415694528997e+00 0 1 0
476 37 722 -4.5000000000000001e-01 1.1089814596703862e+01 1.1079209613718046e+00 8.5402266363004884e+00 0 1 0
655 51 722 -4.5000000000000001e-01 2.0346661421494286e-01 8.7522346341979222e+00 8.2497851381780301e+00 1 -1 0
644 50 726 2.9999999999999999e-02 7.8350239793713161e+00 9.6848476791736093e+00 5.4082526804904738e+00 -1 1 -1
502 39 722 -4.5000000000000001e-01 1.1218457374032729e+01 7.6629221738494966e+00 3.9559589397471977e+00 -1 0 1
888 69 721 8.5999999999999999e-01 2.9267481683736567e+00 1.1897016812497451e+01 8.9834177381895408e+00 0 0 0
673 52 721 -5.0000000000000000e-01 1.0605704441896826e+01 1.0347604403484423e+01 1.0375155968638325e+01 0 0 1
100 8 725 -1.0000000000000001e-01 9.8743113537716027e+00 1.2578659875831246e+00 1.1720129484137985e+01 0 0 0
433 34 721 8.5999999999999999e-01 1.0327647042509955e+01 7.2361137762041592e+00 1.1741400448728264e+01 0 0 0
826 64 726 2.9999999999999999e-02 7.6252084080356575e+00 6.4832218538009456e-01 2.6787209318585270e+00 0 0 1
828 64 725 -1.0000000000000001e-01 4.5604189298833067e+00 2.0710937703446377e+00 2.7817246837668463e+00 0 0 1
629 49 722 -4.5000000000000001e-01 6.8629348454271701e+00 6.4791029602073262e+00 1.9051680626656222e+00 1 0 1
495 39 723 2.0999999999999999e-01 1.0410299098470512e+01 5.7261609411447436e+00 4.8199455169048235e+00 -1 0 1
1112 86 726 2.9999999999999999e-02 5.0401532750191329e+00 8.6365918433205007e+00 7.2303858227149904e+00 0 1 0
471 37 727 2.9999999999999999e-02 9.1963514226713912e+00 1.1318881358895785e+00 7.8295131014844577e+00 0 1 0
1111 86 726 2.9999999999999999e-02 6.5328729407903410e+00 8.1380334551327671e+00 6.4053632438590684e+00 0 1 0
98 8 726 2.9999999999999999e-02 7.6518809557829197e+00 1.3521540408955304e-01 9.6470922693001828e+00 0 0 0
375 29 728 5.9999999999999998e-02 9.0316484264659630e-02 8.4338691673439292e-01 7.4552733201471195e+00 1 1 0
651 51 723 2.0999999999999999e-01 1.2994346685188920e+00 7.9052783560724800e+00 8.2179521358806227e+00 1 -1 0
661 51 728 5.9999999999999998e-02 2.2295669771602564e+00 8.6631890006984218e+00 5.4999838123652598e+00 1 -1 0
642 50 722 -4.5000000000000001e-01 6.9280600646599728e+00 1.1081076167873062e+01 6.6502698808813525e+00 -1 1 -1
122 10 722 -4.5000000000000001e-01 9.7312377557496355e+00 1.9018973456456212e+00 3.0981844794837405e+00 0 1 -1
765 59 728 5.9999999999999998e-02 9.1731373842275477e-01 5.1363584778721245e+00 1.1779932015229310e+01 1 0 0
124 10 726 2.9999999999999999e-02 9.1826780162475909e+00 3.7539105592363033e+00 2.5592380703995561e+00 0 1 -1
632 49 722 -4.5000000000000001e-01 5.3978381561009998e+00 7.5433891269819764e+00 7.5506974197269505e-01 1 0 1
75 6 721 -5.0000000000000000e-01 -4.3051305924053196e-01 3.8926574663109568e+00 8.4595923363323546e+00 0 0 0
543 42 721 -5.0000000000000000e-01 1.8821127025514535e+00 3.5690112264922260e+00 1.0238908345510473e+00 0 0 1
1110 86 722 -4.5000000000000001e-01 5.3018133937566612e+00 6.5188484845875845e+00 7.1249463471702610e+00 0 1 0
519 40 728 5.9999999999999998e-02 5.7159888730251112e+00 8.6888141485873369e+00 1.1168313479182581e+01 0 1 0
1118 86 728 5.9999999999999998e-02 8.5116349342075033e+00 7.7094788145473947e+00 8.3092893279715803e+00 0 1 0
483 38 724 1.6000000000000000e-01 1.3466648933390537e+00 7.6440609505081882e+00 5.2996557420720714e-01 2 0 1
662 51 728 5.9999999999999998e-02 2.0811306334756945e+00 7.0936135997596228e+00 4.8468971767480200e+00 1 -1 0
482 38 723 2.0999999999999999e-01 9.1767132714667445e-04 7.2449171518559741e+00 7.9067949389746850e-01 2 0 1
832 64 728 5.9999999999999998e-02 3.8915124241393539e+00 1.2490479598158672e+00 2.4255507906753766e+00 0 0 1
490 38 725 -1.0000000000000001e-01 2.3455237826841242e+00 7.5295839215209694e+00 1.7543941114061437e+00 2 0 1
536 42 727 2.9999999999999999e-02 4.0908669109066625e-01 3.7138769151741711e+00 4.0555209005465391e+00 0 0 1
496 39 724 1.6000000000000000e-01 1.1670038559715024e+01 6.3968259453758716e+00 4.3818190127465710e+00 -1 0 1
652 51 724 1.6000000000000000e-01 1.0652146966595737e+00 7.3292903107825573e+00 6.8384504825790930e+00 1 -1 0
825 64 726 2.9999999999999999e-02 5.9155938202788203e+00 6.9851659806387023e-02 2.8448405121580178e+00 0 0 1
1109 86 721 8.5999999999999999e-01 5.3971905427311766e+00 5.7749001314406589e+00 8.2896767904584951e+00 0 1 0
442 34 728 5.9999999999999998e-02 1.2009116138854958e+01 3.7499486249229235e+00 1.1322627159054390e+01 0 0 0
535 42 724 1.6000000000000000e-01 -2.7921937331213115e-01 3.9067028641564803e+00 3.2370910455009048e+00 0 0 1
93 8 724 1.6000000000000000e-01 8.4517675259321479e+00 8.4825569395312650e-01 1.1407845056547547e+01 0 0 0
469 37 723 2.0999999999999999e-01 1.0586860657323443e+01 2.5600168086741981e-01 6.4168386714841574e+00 0 1 0
1115 86 721 -5.0000000000000000e-01 3.9943816585752971e+00 5.8328050306007357e+00 8.7542589519202210e+00 0 1 0
480 37 728 5.9999999999999998e-02 9.3730684843724816e+00 2.9433078560304349e+00 6.3642334838482864e+00 0 1 0
656 51 726 2.9999999999999999e-02 2.3047379180038710e+00 8.3212162793512370e+00 8.4176410730223008e+00 1 -1 0
894 69 721 -5.0000000000000000e-01 4.1138953298707577e+00 1.0908291890150760e+01 8.9037659414431527e+00 0 0 0
157 13 723 2.0999999999999999e-01 9.4505320837688913e+00 8.8264194855657436e+00 -2.3773736951693522e-01 1 1 0
484 38 727 2.9999999999999999e-02 1.7917621856057711e+00 7.1176800285605220e+00 -3.5905018083540297e-01 2 0 1
500 39 726 2.9999999999999999e-02 1.0215510729794062e+01 5.6187409480610473e+00 5.8873887493497037e+00 -1 0 1
820 64 723 2.0999999999999999e-01 6.6060604342248235e+00 7.2689556767224262e-01 2.3355535661158773e+00 0 0 1
481 37 728 5.9999999999999998e-02 1.1185013486332062e+01 2.9164495484820563e+00 6.4070183513221570e+00 0 1 0
541 42 722 -4.5000000000000001e-01 4.5106007491615646e-01 4.0746450332542379e+00 2.0666154692525693e+00 0 0 1
625 49 723 2.0999999999999999e-01 6.2945335984522277e+00 5.4662127719451252e+00 1.1552721848654068e+00 1 0 1
663 51 728 5.9999999999999998e-02 3.1598440365725775e+00 7.3562785151858554e+00 6.1073228242953856e+00 1 -1 0
634 49 721 -5.0000000000000000e-01 6.4329923019500894e+00 8.3795831337268449e+00 3.0747697546069852e+00 1 0 1
80 7 724 1.6000000000000000e-01 2.7896855537198966e+00 1.1896247069492858e+01 2.3792356468838745e+00 0 0 0
643 50 726 2.9999999999999999e-02 8.7405362794163199e+00 1.1070235356108046e+01 5.7782900606007539e+00 -1 1 -1
94 8 727 2.9999999999999999e-02 7.9025705424137094e+00 1.7873568503356054e+00 1.1061166360364572e+01 0 0 0
489 38 722 -4.5000000000000001e-01 1.2178910419499502e+00 9.0453005428937168e+00 2.2435490988943599e-01 2 0 1
437 34 722 -4.5000000000000001e-01 1.1470652441656675e+01 6.6738337405876580e+00 1.1308521059048342e+01 0 0 0
434 34 722 -4.5000000000000001e-01 9.4789325853894759e+00 6.1879107718213522e+00 1.1457107631237083e+01 0 0 0
824 64 722 -4.5000000000000001e-01 6.6842545260207524e+00 4.2273481625644610e-01 9.7602695914824478e-01 0 0 1
631 49 726 2.9999999999999999e-02 5.8137145645039530e+00 4.7064448651809965e+00 1.7856264900310252e+00 1 0 1
470 37 724 1.6000000000000000e-01 1.0219288002156775e+01 1.3515759095339750e+00 7.4376610092079796e+00 0 1 0
426 33 721 -5.0000000000000000e-01 4.6788203709941873e+00 9.4464171170965106e-01 1.0418005392453900e+01 0 1 0
474 37 726 2.9999999999999999e-02 1.1355134533948766e+01 5.7550953196366328e-01 5.6582568397809876e+00 0 1 0
510 40 727 2.9999999999999999e-02 3.2602369965611500e+00 7.8434094813076340e+00 1.1273350979092319e+01 0 1 0
1117 86 728 5.9999999999999998e-02 7.8213484365580515e+00 9.4160413440500221e+00 8.5933897063880345e+00 0 1 0
626 49 724 1.6000000000000000e-01 5.1822638863598733e+00 6.1912614616015214e+00 3.9748267030291495e-01 1 0 1
102 8 728 5.9999999999999998e-02 1.0478747699782785e+01 4.4994974231553403e-01 1.2044899945893867e+01 0 0 0
477 37 725 -1.0000000000000001e-01 1.0275171040276732e+01 2.7931797013252213e+00 6.9962642002311002e+00 0 1 0
830 64 728 5.9999999999999998e-02 3.9796257387395166e+00 2.8879429123656193e+00 2.4252915476696639e+00 0 0 1
827 64 722 -4.5000000000000001e-01 5.9930483575383438e+00 2.4282226363684978e+00 9.8270048624620487e-01 0 0 1
119 10 724 1.6000000000000000e-01 1.0589545538339712e+01 2.6943970233896035e+00 1.1325753080187004e+00 0 1 -1
499 39 722 -4.5000000000000001e-01 9.4089320700724350e+00 6.5518779974376686e+00 4.3068249799162874e+00 -1 0 1
85 7 726 2.9999999999999999e-02 1.0858446738619516e+00 1.1453375050882464e+01 3.5521752965758968e+00 0 0 0
1114 86 725 -1.0000000000000001e-01 7.7731459394601767e+00 8.3363588179242996e+00 8.8324925295931660e+00 0 1 0
657 51 726 2.9999999999999999e-02 1.1155159666392480e+00 7.0747744600148383e+00 8.8787101905793993e+00 1 -1 0
120 10 727 2.9999999999999999e-02 1.1246360040288108e+01 3.5801382219878266e+00 1.3020331506551237e+00 0 1 -1
475 37 726 2.9999999999999999e-02 9.9041242590553136e+00 -4.2094688808653069e-01 5.9677476747604450e+00 0 1 0
62 5 721 -5.0000000000000000e-01 -2.0561081029656730e-02 1.0574454400039416e+01 1.1565640116959413e+01 1 -1 0
97 8 726 2.9999999999999999e-02 9.2845790462429445e+00 -3.0632708288947430e-01 9.7463486634887886e+00 0 0 0
462 36 726 2.9999999999999999e-02 1.0462404671020220e+00 8.4374346432961511e-01 1.1774047645926940e+01 1 1 -1
89 7 728 5.9999999999999998e-02 4.8116309729366078e+00 1.1031354126032269e+01 2.2719386957440482e+00 0 0 0
430 34 723 2.0999999999999999e-01 9.9449493313366411e+00 5.1678179604498409e+00 1.0637851238266178e+01 0 0 0
648 50 728 5.9999999999999998e-02 8.6944493227835835e+00 1.1505456133850162e+01 2.7801705109013888e+00 -1 1 -1
431 34 724 1.6000000000000000e-01 1.1352939244158536e+01 5.6180680566257557e+00 1.0408366490406360e+01 0 0 0
432 34 727 2.9999999999999999e-02 1.1337483522598991e+01 6.1192208960573939e+00 9.4681473011496067e+00 0 0 0
639 50 724 1.6000000000000000e-01 7.2294293142317567e+00 1.1583254511334877e+01 4.4754685624308390e+00 -1 1 -1
127 10 721 -5.0000000000000000e-01 1.0225956141316448e+01 -2.3473395421051138e-01 2.5946988987939057e+00 0 1 -1
640 50 727 2.9999999999999999e-02 6.5007224314892502e+00 1.1058837796414096e+01 3.9743746128929334e+00 -1 1 -1
360 28 725 -1.0000000000000001e-01 1.2052135169792882e+01 1.2038492712836074e+01 6.7786923465233446e+00 -1 0 1
162 13 726 2.9999999999999999e-02 8.6173367168411001e+00 9.5103914142697139e+00 -3.7769878598081141e-01 1 1 0
87 7 725 -1.0000000000000001e-01 3.8305118100431557e+00 1.0989067521282964e+01 1.7896368424258542e+00 0 0 0
658 51 722 -4.5000000000000001e-01 -2.8982583610717066e-01 7.6633291433947299e+00 6.5343642191393876e+00 1 -1 0
487 38 726 2.9999999999999999e-02 -1.4714587332268397e-01 7.0340897637917994e+00 1.8685933543921629e+00 2 0 1
364 28 728 5.9999999999999998e-02 1.1892994493069811e+01 1.1181615341794934e+01 6.1832638593383829e+00 -1 0 1
472 37 721 8.5999999999999999e-01 1.1941830247980274e+01 8.4522354587086082e-02 8.1940667446928970e+00 0 1 0
38 3 728 5.9999999999999998e-02 6.0891575706266945e+00 3.4189486795033481e+00 1.1733285426956895e+01 0 1 1
376 29 728 5.9999999999999998e-02 -1.3170365969607653e-01 1.0412876965166958e-01 9.1949702949974892e+00 1 1 0
421 33 722 -4.5000000000000001e-01 2.8891237894313786e+00 -3.0748414847382599e-01 1.0335904552892902e+01 0 1 0
126 10 725 -1.0000000000000001e-01 1.0266993563484100e+01 2.4244197234343861e+00 -3.1160001908113566e-01 0 1 -1
507 39 728 5.9999999999999998e-02 1.2057820104954896e+01 6.6792916548447776e+00 6.5172372017491389e+00 -1 0 1
668 52 722 -4.5000000000000001e-01 1.1502676398421062e+01 1.1048244800811609e+01 1.2001142336667836e+01 0 0 1
516 40 725 -1.0000000000000001e-01 5.4482874892108359e+00 8.0086704040340031e+00 1.1935872263209561e+01 0 1 0
555 43 725 -1.0000000000000001e-01 1.1775502179979192e+01 2.6804601771065588e+00 1.7042885549873979e+01 0 0 0
756 59 724 1.6000000000000000e-01 -1.6085455016618083e-01 5.7514189005010143e+00 1.3696409204958689e+01 1 0 0
33 3 726 2.9999999999999999e-02 2.8170656304274471e+00 2.7493767260476840e+00 1.2834908108275839e+01 0 1 1
1214 94 722 -4.5000000000000001e-01 7.1802100415631607e+00 6.6171827514578689e+00 1.5388340631083118e+01 0 0 0
548 43 724 1.6000000000000000e-01 1.2098356514824726e+01 4.0921117735842163e+00 1.6476841042783370e+01 0 0 0
99 8 722 -4.5000000000000001e-01 7.7942709424552454e+00 2.0504213079357111e-01 1.2479828463098416e+01 0 0 0
1277 99 727 2.9999999999999999e-02 5.0973335778236537e+00 1.2152054897580895e+00 2.2042352572010849e+01 0 1 -1
1093 85 723 2.0999999999999999e-01 3.4914408278166862e+00 1.1444328321515879e+01 2.1465492130144465e+01 1 0 0
558 43 728 5.9999999999999998e-02 1.0970244069122092e+01 2.1578815083738725e+00 1.6502039119477761e+01 0 0 0
128 10 728 5.9999999999999998e-02 9.7051689771246306e+00 3.2060503587972979e+00 2.4313197237528478e+01 0 1 -2
165 13 725 -1.0000000000000001e-01 9.2653215567664322e+00 9.0375102544623349e+00 2.2314271418777743e+01 1 1 -1
159 13 727 2.9999999999999999e-02 1.1181945539715047e+01 8.9543440905138532e+00 2.3537573505375590e+01 1 1 -1
1217 94 722 -4.5000000000000001e-01 8.7476397467606866e+00 5.9630217599742936e+00 1.6587880562886280e+01 0 0 0
23 2 721 -5.0000000000000000e-01 6.7155290016105837e+00 1.0114696693005273e+01 1.9435767335000318e+01 0 -1 0
1179 91 725 -1.0000000000000001e-01 8.5270449578680196e+00 6.8853349535802633e-02 1.8243345902496149e+01 0 1 -1
31 3 722 -4.5000000000000001e-01 3.3885668405101570e+00 2.6878174181840233e+00 1.4719784496204667e+01 0 1 1
1281 99 726 2.9999999999999999e-02 4.1899851125127894e+00 2.7108913443545064e+00 2.3305928819507606e+01 0 1 -1
1283 99 725 -1.0000000000000001e-01 3.7248222847451622e+00 1.4442813926785556e+00 2.0237742456283286e+01 0 1 -1
549 43 727 2.9999999999999999e-02 1.1310002865008364e+01 4.7916935249386299e+00 1.6673237013955664e+01 0 0 0
1284 99 721 -5.0000000000000000e-01 1.2084831391391835e+00 2.0358237345628769e-01 2.3521458271072039e+01 0 1 -1
274 22 723 2.0999999999999999e-01 3.7104073890411735e+00 7.7270165339923400e+00 1.7027010379276991e+01 1 0 0
173 14 721 8.5999999999999999e-01 1.1287039259002505e+01 4.7922370775402916e+00 2.1254460173330475e+01 1 0 0
511 40 721 8.5999999999999999e-01 2.6103861975732539e+00 9.8753466222722324e+00 1.3121521768605019e+01 0 1 0
170 14 723 2.0999999999999999e-01 1.0050003520253885e+01 3.7023855437144269e+00 1.9629023652995233e+01 1 0 0
988 76 728 5.9999999999999998e-02 2.0120190642111613e+00 4.8727251970726932e+00 1.9430481998530649e+01 -1 0 0
175 14 726 2.9999999999999999e-02 9.6239696899556328e+00 4.2691554465490782e+00 1.8765392498314050e+01 1 0 0
456 36 723 2.0999999999999999e-01 6.3644202653237258e-01 1.8880571871252156e-02 1.2392214984301736e+01 1 1 -1
281 22 722 -4.5000000000000001e-01 3.4432046380600947e+00 7.4373044921341087e+00 1.9201601218349072e+01 1 0 0
763 59 725 -1.0000000000000001e-01 7.9764865686095099e-01 4.8227191723661083e+00 1.2814944733592808e+01 1 0 0
282 22 725 -1.0000000000000001e-01 1.9460742436319149e+00 9.1693793749214390e+00 1.8260707084021199e+01 1 0 0
1103 85 728 5.9999999999999998e-02 4.4012685755453811e+00 8.7936744859389169e+00 2.1959178530640404e+01 1 0 0
168 13 728 5.9999999999999998e-02 9.7700387167114808e+00 8.5490717746007991e+00 2.1426211223825124e+01 1 1 -1
514 40 726 2.9999999999999999e-02 2.7189670179821337e+00 6.8043271688543436e+00 1.3324314998487893e+01 0 1 0
1178 91 722 -4.5000000000000001e-01 6.3226133348757347e+00 4.5674879199267476e-01 1.7713537222285797e+01 0 1 -1
333 26 722 -4.5000000000000001e-01 1.0933719356968043e+01 1.1283703366867718e+01 1.7266616636006738e+01 -1 -1 0
1100 85 722 -4.5000000000000001e-01 2.2670508512440812e+00 1.1018938561017286e+01 2.3330640958097394e+01 1 0 0
1220 94 728 5.9999999999999998e-02 1.0228199996812272e+01 9.0288445839061975e+00 1.6353001496961276e+01 0 0 0
1216 94 726 2.9999999999999999e-02 6.8579821382086719e+00 8.3985874531663161e+00 1.6447327989165871e+01 0 0 0
176 14 726 2.9999999999999999e-02 1.0188038956181668e+01 2.6613431536589651e+00 1.9478869812791761e+01 1 0 0
512 40 722 -4.5000000000000001e-01 2.4143253480856366e+00 8.7433488969274187e+00 1.3731586248522303e+01 0 1 0
1211 94 724 1.6000000000000000e-01 8.7939253444384207e+00 7.3767848475412965e+00 1.6816175076222169e+01 0 0 0
976 76 723 2.0999999999999999e-01 3.9558278880772707e-01 3.2947246422809719e+00 1.7921033995544910e+01 -1 0 0
1285 99 728 5.9999999999999998e-02 4.4895626747839277e+00 1.9751572434498188e+00 1.9737082006948501e+01 0 1 -1
987 76 728 5.9999999999999998e-02 7.1921410523960672e-01 5.8503089162667932e+00 2.0245044189514608e+01 -1 0 0
130 10 728 5.9999999999999998e-02 1.1105394600519110e+01 2.4267347507056343e+00 2.4058249770355463e+01 0 1 -2
518 40 728 5.9999999999999998e-02 5.9592971705293625e+00 8.2913937911454152e+00 1.2838451586881254e+01 0 1 0
1098 85 726 2.9999999999999999e-02 3.6511973784694693e+00 1.0951869635969336e+01 2.0494688866890304e+01 1 0 0
982 76 726 2.9999999999999999e-02 4.5136303842576198e-01 3.3319004089791764e+00 1.6752533746836320e+01 -1 0 0
1212 94 727 2.9999999999999999e-02 8.5334135617462472e+00 7.6942843758610726e+00 1.7799894760463786e+01 0 0 0
177 14 722 -4.5000000000000001e-01 9.9654426097551045e+00 4.6500272030191265e+00 2.1720061286708273e+01 1 0 0
1210 94 723 2.0999999999999999e-01 7.6675646667909430e+00 7.7823913046722435e+00 1.5966048753830327e+01 0 0 0
1183 91 728 5.9999999999999998e-02 8.4733839692761102e+00 6.9221526012692680e-01 1.9142368438527388e+01 0 1 -1
37 3 728 5.9999999999999998e-02 6.8142999354702836e+00 4.5070326347788026e+00 1.2881156661376043e+01 0 1 1
439 34 721 -5.0000000000000000e-01 9.3089515004700445e+00 6.8002325534987440e+00 1.2728865460411608e+01 0 0 0
284 22 728 5.9999999999999998e-02 1.1830864420110576e+00 9.2599625567538020e+00 1.9068822356129850e+01 1 0 0
329 26 721 8.5999999999999999e-01 1.0975419744686157e+01 1.1247093153102647e+01 1.8540142476709715e+01 -1 -1 0
1094 85 724 1.6000000000000000e-01 3.4335190824354989e+00 1.0583701835029773e+01 2.2714839073995229e+01 1 0 0
32 3 726 2.9999999999999999e-02 4.2434829855676739e+00 1.8120545080312189e+00 1.2923716975180700e+01 0 1 1
285 22 728 5.9999999999999998e-02 1.4361201708460978e+00 9.3601309013701517e+00 1.7331483427615293e+01 1 0 0
829 64 721 -5.0000000000000000e-01 6.8789076175898636e+00 2.5232403245630177e+00 2.4373114154982424e+01 0 0 0
1271 98 721 -5.0000000000000000e-01 1.0436074510528472e+01 5.3568513322078570e-01 2.1649804266570996e+01 0 0 0
1275 99 723 2.0999999999999999e-01 3.3962993620116255e+00 2.3869192984627028e+00 2.2639922524518678e+01 0 1 -1
1269 98 722 -4.5000000000000001e-01 1.1824904074601298e+01 -6.0609903353807018e-02 1.9607050588548553e+01 0 0 0
1104 85 728 5.9999999999999998e-02 2.6927179856030983e+00 8.7599252703775665e+00 2.1592232584970866e+01 1 0 0
1265 98 721 8.5999999999999999e-01 1.1698964571981232e+01 4.5506495756732296e-01 2.0855030178129848e+01 0 0 0
30 3 721 8.5999999999999999e-01 3.7228700390968008e+00 3.8552825848875751e+00 1.5367004240544434e+01 0 1 1
28 3 724 1.6000000000000000e-01 4.5807379756685691e+00 4.0194898238747312e+00 1.3089971059536801e+01 0 1 1
1181 91 728 5.9999999999999998e-02 9.5557396736404474e+00 9.0563343744208713e-02 1.7832469693040220e+01 0 1 -1
22 2 725 -1.0000000000000001e-01 6.5665720587285126e+00 1.1517737229211024e+01 1.6134682000212557e+01 0 -1 0
276 22 727 2.9999999999999999e-02 1.8508664576382150e+00 6.9448322496864652e+00 1.7964468418254459e+01 1 0 0
633 49 725 -1.0000000000000001e-01 5.1008213155073374e+00 5.9909174477368081e+00 2.3944332797334525e+01 1 0 0
757 59 727 2.9999999999999999e-02 2.6913337171180873e-01 6.6973436521655039e+00 1.3675437490242624e+01 1 0 0
35 3 725 -1.0000000000000001e-01 6.0617537275232998e+00 3.7128184337291814e+00 1.2756236975310541e+01 0 1 1
517 40 721 -5.0000000000000000e-01 3.5615504748298252e+00 1.0659854498422931e+01 1.3923177400031934e+01 0 1 0
984 76 725 -1.0000000000000001e-01 9.9423341783092190e-01 4.8920024880017348e+00 1.9771321794063116e+01 -1 0 0
1219 94 721 -5.0000000000000000e-01 8.6326576483342752e+00 4.2838121800565396e+00 1.6390191005470175e+01 0 0 0
39 3 728 5.9999999999999998e-02 6.3670022020211299e+00 2.8305550841804639e+00 1.3321279613225206e+01 0 1 1
1222 94 728 5.9999999999999998e-02 1.0827058586589985e+01 7.6647184328077138e+00 1.7202119071361558e+01 0 0 0
458 36 727 2.9999999999999999e-02 1.9806633010517425e+00 7.9124420854197897e-01 1.4047368347983737e+01 1 1 -1
1276 99 724 1.6000000000000000e-01 4.0446073790483323e+00 1.3467603064597713e+00 2.1720528571828950e+01 0 1 -1
1096 85 721 8.5999999999999999e-01 1.5670397728642420e+00 1.1988817506800892e+01 2.2743205350593851e+01 1 0 0
463 36 722 -4.5000000000000001e-01 1.6621018599246692e-01 1.1429112116279211e-01 1.4663301348517416e+01 1 1 -1
26 2 728 5.9999999999999998e-02 5.9934107236683012e+00 1.0557026080914921e+01 1.6097659581829532e+01 0 -1 0
1221 94 728 5.9999999999999998e-02 1.0659423909937711e+01 7.6112965094058200e+00 1.5514247291584608e+01 0 0 0
515 40 722 -4.5000000000000001e-01 3.7043250795170151e+00 9.6053788010706587e+00 1.2394594668158765e+01 0 1 0
29 3 727 2.9999999999999999e-02 4.1955826587291343e+00 4.6623795925174649e+00 1.2257748847229395e+01 0 1 1
164 13 722 -4.5000000000000001e-01 1.0292671812313639e+01 7.2846861821689739e+00 2.3455416043643300e+01 1 1 -1
981 76 726 2.9999999999999999e-02 1.3181512059860749e+00 2.9313143611452435e+00 1.8238683623236987e+01 -1 0 0
766 59 728 5.9999999999999998e-02 3.5621958851781316e-01 3.8485621812940165e+00 1.2738938545905912e+01 1 0 0
275 22 724 1.6000000000000000e-01 2.5883828441770533e+00 7.7590692233682237e+00 1.8137555545702849e+01 1 0 0
635 49 728 5.9999999999999998e-02 6.1910602073951599e+00 6.0501119779610715e+00 2.3534271805925364e+01 1 0 0
1172 91 724 1.6000000000000000e-01 7.5268874705145237e+00 5.1552161124384377e-01 1.7136928843226499e+01 0 1 -1
1282 99 722 -4.5000000000000001e-01 3.4397889398535320e+00 1.1836262295188642e-01 2.2195357769385410e+01 0 1 -1
178 14 725 -1.0000000000000001e-01 7.7237979338267975e+00 4.4480103549551480e+00 2.0647675976979759e+01 1 0 0
27 3 723 2.0999999999999999e-01 3.6943293296242667e+00 2.7451878556196907e+00 1.3328000231588021e+01 0 1 1
1215 94 726 2.9999999999999999e-02 8.0414568508417830e+00 8.5190121098064697e+00 1.5214887232379603e+01 0 0 0
1213 94 721 8.5999999999999999e-01 7.8842757818162106e+00 5.5465738696201470e+00 1.5725496261631262e+01 0 0 0
1280 99 726 2.9999999999999999e-02 2.9870750982203886e+00 3.3196481725510383e+00 2.2154856248539403e+01 0 1 -1
1180 91 721 -5.0000000000000000e-01 4.3717263309890129e+00 3.6846923882233325e-02 1.6578511809972628e+01 0 1 -1
977 76 724 1.6000000000000000e-01 -1.4498114325365000e-02 4.5702363379980673e+00 1.8665508321206811e+01 -1 0 0
182 14 728 5.9999999999999998e-02 7.2823016702241237e+00 4.4915835037980569e+00 2.1641423615135739e+01 1 0 0
17 2 721 8.5999999999999999e-01 7.0412533575725584e+00 1.1523483589999628e+01 1.9696289956581634e+01 0 -1 0
180 14 728 5.9999999999999998e-02 7.0625798222806502e+00 3.8722290204636725e+00 1.9970046116219006e+01 1 0 0
559 43 728 5.9999999999999998e-02 1.1535506185608936e+01 2.6333301942371037e+00 1.8143403987621120e+01 0 0 0
21 2 722 -4.5000000000000001e-01 7.4358020386780881e+00 1.1427075712880010e+01 1.8425781628490405e+01 0 -1 0
1101 85 725 -1.0000000000000001e-01 3.4188674683838642e+00 9.0800973499761035e+00 2.2353664237754057e+01 1 0 0
181 14 728 5.9999999999999998e-02 7.7669531406102292e+00 5.4464979580692718e+00 2.0250724208371768e+01 1 0 0
278 22 722 -4.5000000000000001e-01 4.6940486790426768e+00 6.9718133749948752e+00 1.7726522790462290e+01 1 0 0
513 40 726 2.9999999999999999e-02 4.0573556811606757e+00 7.5057048169802112e+00 1.4175662196420239e+01 0 1 0
283 22 721 -5.0000000000000000e-01 4.4312188195872029e+00 5.7876065774350058e+00 2.0106104753155989e+01 1 0 0
279 22 726 2.9999999999999999e-02 4.1229829560082401e+00 8.6985182356489936e+00 1.6726256821240778e+01 1 0 0
1287 99 728 5.9999999999999998e-02 3.7538322393696855e+00 5.2279674758724271e-01 1.9643304189229443e+01 0 1 -1
24 2 728 5.9999999999999998e-02 7.5971822515442966e+00 1.1292768754019042e+01 1.5793435512903365e+01 0 -1 0
762 59 722 -4.5000000000000001e-01 -3.7521203560262467e-01 5.2253948537864634e+00 1.5015487986031834e+01 1 0 0
286 22 728 5.9999999999999998e-02 2.6152691369445931e+00 9.9992639379110315e+00 1.8336102864241617e+01 1 0 0
637 49 728 5.9999999999999998e-02 4.5641711011299853e+00 5.1017742108963517e+00 2.3655825845674954e+01 1 0 0
103 8 728 5.9999999999999998e-02 9.9206448991472218e+00 1.8541726766563169e+00 1.2663126425120939e+01 0 0 0
1278 99 721 8.5999999999999999e-01 2.6555594410793133e+00 2.7492082748585295e-01 2.3248956370705216e+01 0 1 -1
1286 99 728 5.9999999999999998e-02 2.8125598178713287e+00 1.9372746487871000e+00 2.0044835323750927e+01 0 1 -1
174 14 722 -4.5000000000000001e-01 1.1266928466641163e+01 4.2539509534975615e+00 2.0086485697793869e+01 1 0 0
34 3 722 -4.5000000000000001e-01 4.3795475658862397e+00 4.5978592197414594e+00 1.4400918705299569e+01 0 1 1
978 76 727 2.9999999999999999e-02 1.5335697991226702e-02 5.3174777719128610e+00 1.7849397942454488e+01 -1 0 0
1095 85 727 2.9999999999999999e-02 4.2405263909933044e+00 1.0821890442742848e+01 2.3310299989250353e+01 1 0 0
158 13 724 1.6000000000000000e-01 1.0137019413508906e+01 8.6642204141041095e+00 2.3510177407375703e+01 1 1 -1
36 3 721 -5.0000000000000000e-01 2.6742236051496331e+00 4.7927637461135424e+00 1.5881388575469284e+01 0 1 1
767 59 728 5.9999999999999998e-02 1.7793340311412813e+00 4.8325226867872066e+00 1.3143107109622594e+01 1 0 0
160 13 721 8.5999999999999999e-01 9.4934551185168221e+00 6.6012559676790028e+00 2.4329677821690041e+01 1 1 -1
277 22 721 8.5999999999999999e-01 4.5614382391228956e+00 6.8127326148524530e+00 1.8978780246305465e+01 1 0 0
1105 85 728 5.9999999999999998e-02 3.3046432420701910e+00 8.5170120137381211e+00 2.3272159990087125e+01 1 0 0
457 36 724 1.6000000000000000e-01 1.2328710000947209e+00 -5.2536028498491948e-02 1.3823838054179385e+01 1 1 -1
636 49 728 5.9999999999999998e-02 4.5952777367956728e+00 6.8531293269892428e+00 2.3586890041838853e+01 1 0 0
335 26 721 -5.0000000000000000e-01 1.0580182201446059e+01 1.1583280375814221e+01 2.0036363778333843e+01 -1 -1 0
986 76 728 5.9999999999999998e-02 8.6051449536214597e-01 4.1560035800792274e+00 2.0578610925551875e+01 -1 0 0
167 13 728 5.9999999999999998e-02 8.3553504141629880e+00 8.5209691384860857e+00 2.2414881753870350e+01 1 1 -1
1097 85 722 -4.5000000000000001e-01 2.2344831054358281e+00 1.1962849748148351e+01 2.1615762214678060e+01 1 0 0
1218 94 725 -1.0000000000000001e-01 1.0165917288685252e+01 7.9658365442759482e+00 1.6367917767540227e+01 0 0 0
1173 91 727 2.9999999999999999e-02 7.7249509741221027e+00 1.5124916281663408e+00 1.6697851088915684e+01 0 1 -1
509 40 724 1.6000000000000000e-01 3.9667380680219315e+00 8.2425514356865666e+00 1.2113358798993781e+01 0 1 0
280 22 726 2.9999999999999999e-02 3.4599277294314814e+00 7.2452110540109684e+00 1.6107629243556726e+01 1 0 0
65 5 728 5.9999999999999998e-02 -1.1993656046330448e-01 1.0239924924381299e+01 1.5469548907828758e+01 1 -1 0
508 40 723 2.0999999999999999e-01 3.3099549497703342e+00 7.7021134876448585e+00 1.3413379985725559e+01 0 1 0
172 14 727 2.9999999999999999e-02 8.9916772185276965e+00 2.8414796389925461e+00 2.1274635906381288e+01 1 0 0
1279 99 722 -4.5000000000000001e-01 2.4711016332412856e+00 1.5682788675777404e+00 2.3297212932040509e+01 0 1 -1
1177 91 726 2.9999999999999999e-02 7.5476953603207741e+00 -2.4261216112393812e-02 1.5079706277904215e+01 0 1 -1
169 13 728 5.9999999999999998e-02 9.1123467174038328e+00 1.0142003229858288e+01 2.2148990214509567e+01 1 1 -1
171 14 724 1.6000000000000000e-01 9.1094080175328696e+00 3.8674645370180190e+00 2.0878374750215805e+01 1 0 0
153 12 721 -5.0000000000000000e-01 6.8758630395313398e+00 1.1608893032033890e+01 2.4513685119960826e+01 1 0 0
129 10 728 5.9999999999999998e-02 9.7490132966669272e+00 1.4995074417249827e+00 2.4622002527763229e+01 0 1 -2
473 37 722 -4.5000000000000001e-01 1.1548073203138046e+01 2.4600644641334867e+01 7.1597231318929397e+00 0 0 0
1161 90 721 8.5999999999999999e-01 5.7011183812202058e+00 1.5469007794163893e+01 2.6352237669227652e+00 1 0 1
201 16 726 2.9999999999999999e-02 8.5110304945480024e+00 2.2852252871804467e+01 6.3111076393991654e+00 0 -1 0
272 21 728 5.9999999999999998e-02 1.8973461436710233e+00 1.7171340579267920e+01 5.4524145176148870e+00 1 0 0
1034 80 726 2.9999999999999999e-02 5.9946529149391781e+00 1.2468708842130209e+01 1.0447298365413074e+01 0 0 1
143 11 728 5.9999999999999998e-02 1.1471171495606434e+00 2.3715716321094220e+01 1.5385303921293123e+00 1 0 0
196 16 723 2.0999999999999999e-01 7.4120711000937938e+00 2.2856394047802453e+01 6.5310411038124379e+00 0 -1 0
1169 90 728 5.9999999999999998e-02 5.0800000997994363e+00 1.8749439808858220e+01 1.3877535978425437e+00 1 0 1
131 11 723 2.0999999999999999e-01 3.3254605855307595e+00 2.2274821597815290e+01 3.0162252121144246e+00 1 0 0
932 72 725 -1.0000000000000001e-01 1.2928447072883522e+00 1.5045753653014517e+01 6.5434586701099973e-01 1 0 1
146 12 727 2.9999999999999999e-02 9.4231336570161570e+00 1.4565494372227587e+01 1.8760565089583209e-02 1 0 1
835 65 727 2.9999999999999999e-02 6.5344665092065979e+00 1.8794719892024105e+01 5.2240932931096582e+00 -1 0 0
800 62 726 2.9999999999999999e-02 9.4075158402944385e+00 2.4246111422800404e+01 3.0101950437339731e-01 -1 0 1
1158 90 723 2.0999999999999999e-01 6.4274650764640047e+00 1.6600362013807576e+01 7.8761018047775933e-01 1 0 1
801 62 722 -4.5000000000000001e-01 1.0017056583699043e+01 2.1239100884212512e+01 6.0025084787549310e-01 -1 0 1
798 62 722 -4.5000000000000001e-01 8.3067233516716463e+00 2.2468596313814309e+01 7.0317691640899282e-01 -1 0 1
890 69 726 2.9999999999999999e-02 1.5771802417282876e+00 1.3802388305088696e+01 7.1313199918708712e+00 0 0 0
197 16 724 1.6000000000000000e-01 6.6813914576243700e+00 2.2883437366650142e+01 5.2133456740244908e+00 0 -1 0
1260 97 728 5.9999999999999998e-02 1.0662044038422541e+01 2.1237509103296915e+01 8.3948189464857261e+00 0 -1 -1
1253 97 722 -4.5000000000000001e-01 1.1025851394026578e+01 1.7912604076290691e+01 9.8915750343364284e+00 0 -1 -1
843 65 728 5.9999999999999998e-02 8.8414902119156569e+00 1.8007892719811245e+01 5.7070005590410657e+00 -1 0 0
262 21 724 1.6000000000000000e-01 1.8857306407665702e+00 1.9208782913879418e+01 4.8402260278180114e+00 1 0 0
135 11 722 -4.5000000000000001e-01 4.3861425256554796e+00 2.1834225821143654e+01 2.1818607393609644e+00 1 0 0
885 69 723 2.0999999999999999e-01 1.5643722710140027e+00 1.3537804210009442e+01 8.2097429278553662e+00 0 0 0
137 11 726 2.9999999999999999e-02 3.5556584370618869e+00 2.2427735415773903e+01 4.0421234761952212e+00 1 0 0
88 7 721 -5.0000000000000000e-01 2.3167572488812209e+00 1.4477092672413411e+01 4.6638524035284430e+00 0 0 0
1029 80 724 1.6000000000000000e-01 6.0097096193104829e+00 1.4627470274708610e+01 1.0925640545910436e+01 0 0 1
803 62 721 -5.0000000000000000e-01 7.9889779867605091e+00 2.0167352162752294e+01 5.4317127541837873e-01 -1 0 1
649 50 728 5.9999999999999998e-02 8.9879782194481148e+00 1.2710438849937377e+01 3.9930498874493408e+00 -1 1 -1
1259 97 728 5.9999999999999998e-02 9.1220445290151240e+00 2.1248893432945906e+01 9.3701764066714830e+00 0 -1 -1
361 28 721 -5.0000000000000000e-01 1.1189575053227061e+01 1.4973517256376560e+01 4.6143367349236089e+00 -1 0 1
1033 80 726 2.9999999999999999e-02 7.5664491491162273e+00 1.3273249910019578e+01 1.0160998513625609e+01 0 0 1
1251 97 727 2.9999999999999999e-02 1.0411168995525049e+01 2.0425618344052644e+01 1.1270165277162008e+01 0 -1 -1
1164 90 726 2.9999999999999999e-02 6.6700735494425007e+00 1.6373075367292202e+01 -2.0261424462820099e-01 1 0 1
83 7 722 -4.5000000000000001e-01 2.5059203350023691e+00 1.2401599120426567e+01 4.6076057131139443e+00 0 0 0
428 33 728 5.9999999999999998e-02 5.5194940521180280e+00 2.2765968346330745e+01 1.1048684029004896e+01 0 0 0
273 21 728 5.9999999999999998e-02 1.6188328638375253e+00 1.8351004279420323e+01 6.8256024272432878e+00 1 0 0
356 28 722 -4.5000000000000001e-01 1.0217069920006304e+01 1.5114398550961882e+01 6.9479336694680569e+00 -1 0 1
596 46 728 5.9999999999999998e-02 1.1720656413466010e+01 1.6445479713422920e+01 1.5514161483266030e-02 -1 0 1
645 50 722 -4.5000000000000001e-01 6.5788621997035275e+00 1.2583703412277179e+01 5.2528833954466085e+00 -1 1 -1
134 11 721 8.5999999999999999e-01 4.5421867273584731e+00 2.2634955395418579e+01 1.0599119370243775e+00 1 0 0
142 11 728 5.9999999999999998e-02 1.2297131678513413e+00 2.3969823463256098e+01 3.2961962183537956e+00 1 0 0
139 11 725 -1.0000000000000001e-01 1.6769055474749306e+00 2.4188883139996257e+01 2.3624625963277235e+00 1 0 0
1167 90 721 -5.0000000000000000e-01 5.8181017089510929e+00 1.6349292101309203e+01 3.7715630630782493e+00 1 0 1
671 52 722 -4.5000000000000001e-01 1.0485853286630171e+01 1.2384279729448201e+01 1.0693319800647934e+01 0 0 1
935 72 728 5.9999999999999998e-02 1.7885770164585908e+00 1.4132314993013738e+01 2.5824779198311804e-01 1 0 1
736 57 722 -4.5000000000000001e-01 2.4336969429608213e+00 1.8056123675737993e+01 1.0766337454819855e+01 1 -1 0
892 69 722 -4.5000000000000001e-01 3.4477470191418167e+00 1.3051686645873250e+01 9.4501641724446532e+00 0 0 0
96 8 722 -4.5000000000000001e-01 8.0528307836593793e+00 2.3725239936950082e+01 1.1021917366365679e+01 0 -1 0
665 52 724 1.6000000000000000e-01 1.1667917524024864e+01 1.3147532749507976e+01 1.0949782113312926e+01 0 0 1
424 33 722 -4.5000000000000001e-01 4.5748354410560239e+00 2.4280825678324710e+01 9.1985650658386593e+00 0 0 0
1256 97 722 -4.5000000000000001e-01 1.2024563063354408e+01 1.9771874843597473e+01 1.0081737188572651e+01 0 -1 -1
359 28 722 -4.5000000000000001e-01 1.0463739836965523e+01 1.3512460643056620e+01 5.7680971551339804e+00 -1 0 1
151 12 722 -4.5000000000000001e-01 8.0550721263898293e+00 1.3011299670236291e+01 2.4288427736019619e-01 1 0 1
862 67 721 8.5999999999999999e-01 1.2090436729042658e+01 2.0094506059385814e+01 5.2717186808807828e+00 0 -1 0
1165 90 722 -4.5000000000000001e-01 4.7471953065062271e+00 1.6266087380842421e+01 2.2029027327436657e+00 1 0 1
261 21 723 2.0999999999999999e-01 1.9761805540457813e+00 1.8811601703178937e+01 3.3882270594771984e+00 1 0 0
1159 90 724 1.6000000000000000e-01 4.9310241568864681e+00 1.6694562021190706e+01 8.9522535727172270e-01 1 0 1
1038 80 728 5.9999999999999998e-02 6.6334690289867462e+00 1.5536410347291026e+01 9.0123648400604175e+00 0 0 1
138 11 722 -4.5000000000000001e-01 3.8506099867592920e+00 2.3744627817285057e+01 1.2568196213377532e+00 1 0 0
796 62 727 2.9999999999999999e-02 1.1236266729265679e+01 2.2939878102435991e+01 4.3543149762788824e-01 -1 0 1
794 62 723 2.0999999999999999e-01 9.1524408459466251e+00 2.3300401641356821e+01 -5.0049898464768934e-02 -1 0 1
840 65 722 -4.5000000000000001e-01 6.2316064424858189e+00 1.9663232082991946e+01 7.0112841606658574e+00 -1 0 0
930 72 726 2.9999999999999999e-02 -4.2033895809754834e-01 1.5775503973587403e+01 3.2577495210400622e+00 1 0 1
198 16 727 2.9999999999999999e-02 5.7262118303086229e+00 2.2283475014556799e+01 5.2991806316380980e+00 0 -1 0
369 29 722 -4.5000000000000001e-01 5.5938809727936378e-01 2.3209390048911168e+01 5.5843278775729361e+00 1 0 0
867 67 725 -1.0000000000000001e-01 1.0636061625152420e+01 1.8302047659338925e+01 2.6355048745135750e+00 0 -1 0
422 33 726 2.9999999999999999e-02 3.1925107667796779e+00 2.3199903305049006e+01 1.1510254275363298e+01 0 0 0
372 29 722 -4.5000000000000001e-01 8.4243345009130155e-01 2.3309660142769118e+01 7.6903340929219075e+00 1 0 0
82 7 721 8.5999999999999999e-01 3.1455130801793505e+00 1.3445541338898163e+01 3.9533659928031724e+00 0 0 0
1039 80 728 5.9999999999999998e-02 7.6558748558945702e+00 1.6086528529803296e+01 1.0280806670445674e+01 0 0 1
202 16 726 2.9999999999999999e-02 7.1255185507962073e+00 2.2040817061074414e+01 7.1400032044267636e+00 0 -1 0
1166 90 725 -1.0000000000000001e-01 4.3985796417324377e+00 1.8146688538491759e+01 7.9824760599789868e-01 1 0 1
925 72 724 1.6000000000000000e-01 1.6506117457135058e-01 1.4652206180721610e+01 1.4958933867256348e+00 1 0 1
1170 90 728 5.9999999999999998e-02 3.3878011480052490e+00 1.8181303879059676e+01 1.2083107531688515e+00 1 0 1
267 21 726 2.9999999999999999e-02 2.6060194136277572e+00 1.9418688232484897e+01 2.8093822997212961e+00 1 0 0
353 28 724 1.6000000000000000e-01 1.0814167538506270e+01 1.2980630103435551e+01 7.0509957735499595e+00 -1 0 1
839 65 726 2.9999999999999999e-02 5.3210534707566435e+00 1.7157842903478510e+01 6.4079902436522076e+00 -1 0 0
868 67 721 -5.0000000000000000e-01 1.1291458550649276e+01 2.1199321097436354e+01 5.8223440424182051e+00 0 -1 0
866 67 722 -4.5000000000000001e-01 1.1410953892628918e+01 1.9062229659327826e+01 4.8059374351384641e+00 0 -1 0
81 7 727 2.9999999999999999e-02 1.8978869014588644e+00 1.2174719134532713e+01 1.7502282811098044e+00 0 0 0
427 33 728 5.9999999999999998e-02 4.9563880046627853e+00 2.1254280132938604e+01 1.0353199079642211e+01 0 0 0
834 65 724 1.6000000000000000e-01 6.8239057252495732e+00 1.8661980334851819e+01 6.2262694842602917e+00 -1 0 0
263 21 727 2.9999999999999999e-02 2.5100455386256799e+00 2.0037829714714242e+01 5.0117278266570500e+00 1 0 0
641 50 721 8.5999999999999999e-01 6.2648049102055863e+00 1.2235445162791603e+01 6.5435532885432917e+00 -1 1 -1
844 65 728 5.9999999999999998e-02 8.6081459270100869e+00 1.8239543998852078e+01 7.4145851317172280e+00 -1 0 0
838 65 726 2.9999999999999999e-02 6.9994350344108636e+00 1.6624165466723767e+01 6.8142379188696927e+00 -1 0 0
646 50 725 -1.0000000000000001e-01 8.2452334378488228e+00 1.2228768429580949e+01 3.4649051916065869e+00 -1 1 -1
836 65 721 8.5999999999999999e-01 5.6688529977149926e+00 1.9299597863403008e+01 8.1756686578547164e+00 -1 0 0
1168 90 728 5.9999999999999998e-02 4.4802078199094106e+00 1.8468072420593231e+01 -2.4211825758411876e-01 1 0 1
266 21 726 2.9999999999999999e-02 2.2002669654281894e+00 1.7694881815418732e+01 3.1257908821787384e+00 1 0 0
133 11 727 2.9999999999999999e-02 3.6650874106952496e+00 2.4405818886739681e+01 3.0290908045309277e+00 1 0 0
833 65 723 2.0999999999999999e-01 6.2767081018006188e+00 1.7429455547439836e+01 6.8208719236806790e+00 -1 0 0
208 16 728 5.9999999999999998e-02 7.0962593688606725e+00 2.3135808480038804e+01 3.2000841287457056e+00 0 -1 0
1160 90 727 2.9999999999999999e-02 4.5338330418926018e+00 1.5910399126046508e+01 2.5043818080151065e-01 1 0 1
368 29 721 8.5999999999999999e-01 1.4369557090531497e+00 2.2856136479137568e+01 6.5947454607855800e+00 1 0 0
738 57 721 -5.0000000000000000e-01 2.2580248021673524e+00 1.9522522476705888e+01 9.1624110391169999e+00 1 -1 0
1028 80 723 2.0999999999999999e-01 6.6509081864688708e+00 1.3230118269713861e+01 1.0810335291095676e+01 0 0 1
837 65 722 -4.5000000000000001e-01 6.0914358040025300e+00 1.7972762200014323e+01 8.1223670717907748e+00 -1 0 0
429 33 728 5.9999999999999998e-02 6.0359449778915240e+00 2.2286875498634927e+01 9.5006210291625628e+00 0 0 0
889 69 722 -4.5000000000000001e-01 1.8960384079796051e+00 1.2156555940196645e+01 8.2949257284285007e+00 0 0 0
842 65 721 -5.0000000000000000e-01 6.8566022640482265e+00 1.9498977099159973e+01 9.0933860901522170e+00 -1 0 0
265 21 722 -4.5000000000000001e-01 6.3396365930862442e-01 1.8934900437159314e+01 2.9905010929036058e+00 1 0 0
1257 97 725 -1.0000000000000001e-01 1.0248970872768693e+01 2.1329548433939451e+01 9.3652968411739792e+00 0 -1 -1
354 28 727 2.9999999999999999e-02 1.0094056435663836e+01 1.2411803340210355e+01 7.5518592994197080e+00 -1 0 1
452 35 721 -5.0000000000000000e-01 -4.1061695959768940e-01 1.6591325196974587e+01 8.5360578110391536e+00 1 0 -1
203 16 722 -4.5000000000000001e-01 6.1872165098394598e+00 2.4220249585847661e+01 5.2880225697148067e+00 0 -1 0
269 21 725 -1.0000000000000001e-01 2.1476393247494450e+00 1.8131723266585830e+01 5.8841341102826483e+00 1 0 0
136 11 726 2.9999999999999999e-02 2.4690229845681824e+00 2.1659332852701375e+01 2.8760027104484949e+00 1 0 0
732 57 721 8.5999999999999999e-01 1.5544855072094534e+00 1.9004482071527576e+01 1.0380320835523664e+01 1 -1 0
268 21 722 -4.5000000000000001e-01 5.8395796959542978e-01 1.9731421405925126e+01 4.9098613778902438e+00 1 0 0
733 57 722 -4.5000000000000001e-01 1.5105513330622391e+00 1.9896249054371737e+01 1.1366194061780632e+01 1 -1 0
676 52 728 5.9999999999999998e-02 1.0815315168334074e+01 1.5257083328003983e+01 1.1072805419730315e+01 0 0 1
934 72 728 5.9999999999999998e-02 1.0208384672260344e+00 1.5471039947543295e+01 -3.4036149524706927e-01 1 0 1
1036 80 725 -1.0000000000000001e-01 6.6175409863528349e+00 1.5733236921027199e+01 1.0061808295648394e+01 0 0 1
650 50 728 5.9999999999999998e-02 7.8836389066751860e+00 1.2987500052314942e+01 2.7885442446605291e+00 -1 1 -1
841 65 725 -1.0000000000000001e-01 8.4017822626027723e+00 1.8658263437024381e+01 6.4231706679461853e+00 -1 0 0
155 12 728 5.9999999999999998e-02 1.1363503221238235e+01 1.3151886471924145e+01 3.3153370090311851e-01 1 0 1
887 69 727 2.9999999999999999e-02 2.4443819850473143e+00 1.4764306655148426e+01 9.9342304959919279e+00 0 0 0
845 65 728 5.9999999999999998e-02 8.8706839078644748e+00 1.9594182627718233e+01 6.2478619305831842e+00 -1 0 0
207 16 728 5.9999999999999998e-02 8.4707075925392932e+00 2.3306329645282375e+01 4.1508954798328350e+00 0 -1 0
132 11 724 1.6000000000000000e-01 3.1282691636905340e+00 2.3707646222875297e+01 2.4596425948132361e+00 1 0 0
1250 97 724 1.6000000000000000e-01 1.0649802147802230e+01 2.0162466070477286e+01 1.0240381130545540e+01 0 -1 -1
145 12 724 1.6000000000000000e-01 9.2755901986769516e+00 1.3490395469503389e+01 -1.5887492434156944e-01 1 0 1
86 7 722 -4.5000000000000001e-01 3.3260299459331608e+00 1.3106805080130679e+01 2.7667335884144975e+00 0 0 0
154 12 728 5.9999999999999998e-02 1.0196316741908372e+01 1.2563607686898086e+01 1.5974979342584492e+00 1 0 1
374 29 721 -5.0000000000000000e-01 2.4123645659844204e+00 2.4043448622957477e+01 6.3811501027185527e+00 1 0 0
384 30 726 2.9999999999999999e-02 -8.5571280667660871e-02 1.3651352341899331e+01 5.7713851486075480e+00 0 1 1
355 28 721 8.5999999999999999e-01 1.0087077348184375e+01 1.4749534051686798e+01 5.6345595202036058e+00 -1 0 1
1249 97 723 2.0999999999999999e-01 9.9901853058080885e+00 1.8833835675830045e+01 9.8540427222063194e+00 0 -1 -1
897 69 728 5.9999999999999998e-02 4.5544111062412913e+00 1.5249902653071167e+01 8.5423128851511017e+00 0 0 0
206 16 728 5.9999999999999998e-02 7.7233590442657825e+00 2.1634602840540403e+01 3.9487749666502547e+00 0 -1 0
1254 97 726 2.9999999999999999e-02 9.6447785027134394e+00 1.8918117686788698e+01 8.8535211899312127e+00 0 -1 -1
1162 90 722 -4.5000000000000001e-01 6.6339021169977004e+00 1.5618791337837367e+01 1.7834117240794429e+00 1 0 1
870 67 728 5.9999999999999998e-02 9.9326432177883408e+00 1.9072573326346898e+01 2.6018711590723047e+00 0 -1 0
152 12 725 -1.0000000000000001e-01 1.0404469142828439e+01 1.2645418504048399e+01 5.1152208108658559e-01 1 0 1
795 62 724 1.6000000000000000e-01 1.0434674899865763e+01 2.2467822050206657e+01 -1.1309395810788778e-01 -1 0 1
864 67 726 2.9999999999999999e-02 1.1984264090213813e+01 2.0557067694569490e+01 2.4424593588046855e+00 0 -1 0
204 16 725 -1.0000000000000001e-01 7.5893426440185250e+00 2.2737670396127704e+01 4.0996771265526490e+00 0 -1 0
264 21 721 8.5999999999999999e-01 -2.9803921945712153e-01 1.9454485234677989e+01 3.8770569445154868e+00 1 0 0
893 69 725 -1.0000000000000001e-01 3.4814012199452851e+00 1.5133135281594116e+01 8.1741406541142521e+00 0 0 0
358 28 726 2.9999999999999999e-02 1.0674812952113061e+01 1.4345814689554501e+01 8.7342164778567106e+00 -1 0 1
647 50 721 -5.0000000000000000e-01 6.2777751232727379e+00 1.3784750810764750e+01 6.5030534102995858e+00 -1 1 -1
740 57 728 5.9999999999999998e-02 4.8187748500542869e+00 1.8734259427108171e+01 1.1584757194505203e+01 1 -1 0
461 36 726 2.9999999999999999e-02 7.0739378259183094e-01 2.4129536917407265e+01 1.1939352322634997e+01 1 0 -1
924 72 723 2.0999999999999999e-01 -3.9115847647584034e-01 1.5912102219107199e+01 2.1663134472923282e+00 1 0 1
929 72 726 2.9999999999999999e-02 2.3859348626251656e-01 1.6776496229116063e+01 1.8711260123691960e+00 1 0 1
357 28 726 2.9999999999999999e-02 1.2030385936786240e+01 1.4661433987967692e+01 7.6896665725498883e+00 -1 0 1
797 62 721 8.5999999999999999e-01 8.8327969716219066e+00 2.1281378493797021e+01 1.1232561342909968e+00 -1 0 1
926 72 727 2.9999999999999999e-02 4.6211431428540556e-01 1.3975803333024722e+01 2.3416152550949443e+00 1 0 1
936 72 728 5.9999999999999998e-02 2.0594998029967777e+00 1.5560517351680218e+01 1.1857858289769165e+00 1 0 1
869 67 728 5.9999999999999998e-02 1.0958175226014758e+01 1.8195669359305533e+01 1.6000102414574797e+00 0 -1 0
200 16 722 -4.5000000000000001e-01 7.0259843581598869e+00 2.4007570968833491e+01 7.1299932353784401e+00 0 -1 0
418 33 724 1.6000000000000000e-01 4.0468276316285277e+00 2.3026104144421893e+01 9.5895077864131100e+00 0 0 0
271 21 728 5.9999999999999998e-02 3.1457091820227099e+00 1.7908490884890853e+01 6.0297431773658090e+00 1 0 0
423 33 726 2.9999999999999999e-02 2.0193138053972342e+00 2.3040237924037697e+01 1.0198934799654934e+01 0 0 0
417 33 723 2.0999999999999999e-01 2.9235517403696383e+00 2.3419181592407469e+01 1.0501056063946605e+01 0 0 0
895 69 728 5.9999999999999998e-02 2.9612801781204747e+00 1.6069576111840739e+01 8.2530360010443520e+00 0 0 0
1040 80 728 5.9999999999999998e-02 6.0345505554072529e+00 1.6654120005066659e+01 1.0121904930757390e+01 0 0 1
1261 97 728 5.9999999999999998e-02 1.0604110810464807e+01 2.2261289359202642e+01 9.7960092462379436e+00 0 -1 -1
860 67 724 1.6000000000000000e-01 1.1805656227376636e+01 1.8637980729575546e+01 3.5432093798224691e+00 0 -1 0
1163 90 726 2.9999999999999999e-02 6.9699835126556478e+00 1.7455223095966950e+01 1.1128939259464812e+00 1 0 1
419 33 727 2.9999999999999999e-02 3.6679629598571788e+00 2.2546743044026002e+01 8.6884296934278584e+00 0 0 0
886 69 724 1.6000000000000000e-01 2.6880171008551104e+00 1.4098775009392046e+01 9.0472282817570520e+00 0 0 0
352 28 723 2.0999999999999999e-01 1.1040715055424606e+01 1.4304565026415657e+01 7.7464564280635724e+00 -1 0 1
425 33 725 -1.0000000000000001e-01 5.2249932581426535e+00 2.2242392383571236e+01 1.0200253272334386e+01 0 0 0
871 67 728 5.9999999999999998e-02 1.0165371257339755e+01 1.7332385806325092e+01 2.9143282209457255e+00 0 -1 0
1255 97 726 2.9999999999999999e-02 9.2200002019265934e+00 1.8505012849383611e+01 1.0523348175098459e+01 0 -1 -1
896 69 728 5.9999999999999998e-02 3.5187969318174064e+00 1.4782228583289347e+01 7.1582720728744071e+00 0 0 0
891 69 726 2.9999999999999999e-02 5.4373904518145910e-01 1.3860043070130649e+01 8.4747556158718229e+00 0 0 0
672 52 725 -1.0000000000000001e-01 1.1377835779559677e+01 1.4501197585018032e+01 1.1641047645031836e+01 0 0 1
1030 80 727 2.9999999999999999e-02 4.9454572765055307e+00 1.4611077733435183e+01 1.0569666972098268e+01 0 0 1
713 55 728 5.9999999999999998e-02 6.1740639720853352e-01 2.1691779651419729e+01 5.5347386314738711e-01 1 -2 0
140 11 721 -5.0000000000000000e-01 4.6720875885055202e+00 2.3332943928318244e+01 -2.0787735961599979e-01 1 0 0
705 55 727 2.9999999999999999e-02 9.5501980126458186e-01 1.9276196311303771e+01 -2.8422402992055495e-01 1 -2 0
296 23 721 -5.0000000000000000e-01 4.4399681273891467e+00 2.2388539568803061e+01 1.9813398252816480e+01 -1 -1 0
729 57 723 2.0999999999999999e-01 2.1815169066250117e+00 1.9539413956064280e+01 1.2533276908953642e+01 1 -1 0
1134 88 727 2.9999999999999999e-02 3.1430830825709908e+00 1.9958242101004458e+01 1.7112274064725479e+01 1 0 0
741 57 728 5.9999999999999998e-02 4.5951192748246514e+00 1.7168593309816913e+01 1.2274954710244389e+01 1 -1 0
920 71 721 -5.0000000000000000e-01 6.2706066115904289e+00 1.6068489949021433e+01 1.7038808460908406e+01 1 0 0
568 44 725 -1.0000000000000001e-01 5.2344708195686351e-01 1.4709690423545497e+01 1.8792485734359843e+01 0 0 0
210 17 724 1.6000000000000000e-01 4.0060615752096801e-01 2.3654017116703677e+01 1.8499524327522096e+01 1 0 0
678 53 724 1.6000000000000000e-01 3.0362590548007602e+00 1.7233567454119601e+01 2.2214102377677005e+01 1 0 -1
1141 88 721 -5.0000000000000000e-01 5.0238301127926510e+00 2.1483706299532152e+01 1.3645871735646239e+01 1 0 0
1295 100 722 -4.5000000000000001e-01 2.1980346732881637e+00 1.3318306170674340e+01 1.5330310457636779e+01 0 0 0
7 1 726 2.9999999999999999e-02 1.0616973452172470e+01 2.0156777094931080e+01 1.7250009924447994e+01 2 0 0
1102 85 721 -5.0000000000000000e-01 9.5851587959874240e-01 1.3228594817272535e+01 2.2160859428789340e+01 1 0 0
570 44 728 5.9999999999999998e-02 1.1803748829448846e+00 1.4258990353095060e+01 1.9517407403049596e+01 0 0 0
1204 93 722 -4.5000000000000001e-01 1.1876305332614352e+01 2.2413796548253679e+01 1.5165204275410092e+01 0 0 0
287 23 723 2.0999999999999999e-01 7.8301522379813280e+00 2.2449356693850824e+01 2.0869620000914033e+01 -1 -1 0
739 57 728 5.9999999999999998e-02 4.5968602056077019e+00 1.8525039966343215e+01 1.3287341614598457e+01 1 -1 0
768 60 723 2.0999999999999999e-01 7.8927669860420844e+00 1.8265187671519158e+01 1.3229731419458156e+01 0 0 -1
326 26 723 2.0999999999999999e-01 1.1974139845809109e+01 1.3204211139515948e+01 1.7728240154960819e+01 -1 -1 0
337 26 728 5.9999999999999998e-02 9.7455346291172980e+00 1.3253559188844621e+01 1.6146103706363466e+01 -1 -1 0
216 17 722 -4.5000000000000001e-01 2.2018220224544693e-01 2.2233300437191851e+01 1.8546602669351060e+01 1 0 0
1142 88 728 5.9999999999999998e-02 3.7152341059004077e+00 1.7655458205120489e+01 1.5206647508941520e+01 1 0 0
327 26 724 1.6000000000000000e-01 1.1594476161989963e+01 1.2299182825606820e+01 1.6623693028011001e+01 -1 -1 0
10 1 721 -5.0000000000000000e-01 1.0457068800979021e+01 1.9589746748775511e+01 2.0266379895005059e+01 2 0 0
915 71 722 -4.5000000000000001e-01 7.3012320712295748e+00 1.7257257372831766e+01 1.8932511248092172e+01 1 0 0
211 17 727 2.9999999999999999e-02 1.2896988375239686e+00 2.3836200678202069e+01 1.7887949787349662e+01 1 0 0
917 71 726 2.9999999999999999e-02 7.3127449829980362e+00 1.6590080282957018e+01 2.0880343084165144e+01 1 0 0
677 53 723 2.0999999999999999e-01 2.5493265426372789e+00 1.6527951809777591e+01 2.0955438366380829e+01 1 0 -1
778 60 728 5.9999999999999998e-02 9.2544689701079843e+00 2.0836668251496562e+01 1.4475563273324486e+01 0 0 -1
294 23 722 -4.5000000000000001e-01 5.6658917071385480e+00 2.1691849595897274e+01 2.1277105956441034e+01 -1 -1 0
1133 88 724 1.6000000000000000e-01 3.7202256504027522e+00 1.9575269876261515e+01 1.6286949271099022e+01 1 0 0
1035 80 722 -4.5000000000000001e-01 6.2680372228352619e+00 1.4994128273371462e+01 1.2262666934365528e+01 0 0 1
213 17 722 -4.5000000000000001e-01 6.4205421570050425e-01 2.2576611169250917e+01 2.0488294827583587e+01 1 0 0
710 55 722 -4.5000000000000001e-01 2.9119967694542714e-01 1.9725873357513308e+01 2.2830274549438457e+01 1 -2 -1
241 19 726 2.9999999999999999e-02 -2.7392770496744751e-01 2.1679035109252304e+01 1.6357457636012079e+01 0 -1 0
467 36 728 5.9999999999999998e-02 1.1239289561970762e+00 2.2836330076542197e+01 1.4083598157526271e+01 1 0 -1
689 53 728 5.9999999999999998e-02 4.6698869334335020e+00 1.8554562044609291e+01 2.1515288302143258e+01 1 0 -1
1175 91 722 -4.5000000000000001e-01 6.1517149669823290e+00 2.4009816050359213e+01 1.6224304317601504e+01 0 0 -1
5 1 722 -4.5000000000000001e-01 1.1401163903397494e+01 1.8749733243592722e+01 1.8452100686449974e+01 2 0 0
1297 100 721 -5.0000000000000000e-01 3.1492337594323097e+00 1.4649119936985835e+01 1.6324903913264521e+01 0 0 0
911 71 723 2.0999999999999999e-01 7.9997838097524525e+00 1.6758820283199697e+01 2.0114021700165168e+01 1 0 0
913 71 727 2.9999999999999999e-02 8.3616887119289842e+00 1.4554589583089724e+01 2.0081603007245914e+01 1 0 0
566 44 726 2.9999999999999999e-02 5.4936360438022191e-01 1.2374854836784703e+01 1.6776809256153790e+01 0 0 0
468 36 728 5.9999999999999998e-02 1.9582869231794879e+00 2.3811573889659655e+01 1.5362770355041523e+01 1 0 -1
1200 93 721 8.5999999999999999e-01 1.1211815563216851e+01 2.3591636162303274e+01 1.5055240829261828e+01 0 0 0
771 60 721 8.5999999999999999e-01 1.0099399154231060e+01 1.7539699761690393e+01 1.3450598469573954e+01 0 0 -1
780 60 728 5.9999999999999998e-02 7.7253078910034141e+00 2.0692591977472041e+01 1.3952415768197895e+01 0 0 -1
295 23 725 -1.0000000000000001e-01 7.3600033265677043e+00 2.0086089783286859e+01 2.1499840169891158e+01 -1 -1 0
684 53 722 -4.5000000000000001e-01 4.0703187778580503e+00 1.6368059395122280e+01 2.2643415336305797e+01 1 0 -1
15 2 724 1.6000000000000000e-01 6.7730157513619931e+00 1.2233924348071994e+01 1.7461757231654541e+01 0 -1 0
291 23 722 -4.5000000000000001e-01 6.7234251430611200e+00 2.3423088787531185e+01 2.0752055377655356e+01 -1 -1 0
20 2 726 2.9999999999999999e-02 5.4738157015525752e+00 1.3699871253572582e+01 1.8174317737114446e+01 0 -1 0
919 71 725 -1.0000000000000001e-01 1.0173023535021740e+01 1.5671191264586859e+01 1.9686662029238480e+01 1 0 0
802 62 725 -1.0000000000000001e-01 1.0963935435679423e+01 2.2057727652992121e+01 2.3615375007937189e+01 -1 0 0
770 60 727 2.9999999999999999e-02 8.0056482271161968e+00 1.8166375558964319e+01 1.5384826327405737e+01 0 0 -1
16 2 727 2.9999999999999999e-02 7.6148902164114967e+00 1.3001274333653354e+01 1.7291303401193733e+01 0 -1 0
1292 100 722 -4.5000000000000001e-01 3.3966342237725988e+00 1.4236858076526618e+01 1.3775302173655778e+01 0 0 0
209 17 723 2.0999999999999999e-01 5.6698614873904973e-01 2.3895093541394232e+01 1.9977103673632357e+01 1 0 0
571 44 728 5.9999999999999998e-02 -2.7713193404654691e-03 1.5514587119822366e+01 1.9239430758319894e+01 0 0 0
912 71 724 1.6000000000000000e-01 8.6522724988869211e+00 1.5486408268977851e+01 1.9604280582111382e+01 1 0 0
560 44 723 2.0999999999999999e-01 3.6137738127565788e-01 1.2301245725927860e+01 1.7817708093724878e+01 0 0 0
916 71 726 2.9999999999999999e-02 8.6898631835421050e+00 1.7443559392270970e+01 2.0471957340439346e+01 1 0 0
1171 91 723 2.0999999999999999e-01 7.4448842662223171e+00 2.4605089925348587e+01 1.6063958743416798e+01 0 0 -1
735 57 726 2.9999999999999999e-02 1.3498508953531037e+00 1.9452261441770943e+01 1.3255880034411902e+01 1 -1 0
1288 100 723 2.0999999999999999e-01 2.2064054067713834e+00 1.3856559815927804e+01 1.3122920815416059e+01 0 0 0
687 53 728 5.9999999999999998e-02 3.8411043000459637e+00 1.9019224958072492e+01 2.2912665393955752e+01 1 0 -1
561 44 724 1.6000000000000000e-01 -3.9507309834601140e-01 1.3532940836856179e+01 1.8245631449882325e+01 0 0 0
1136 88 722 -4.5000000000000001e-01 5.5939419332108180e+00 2.0788837251807223e+01 1.6150048772974380e+01 1 0 0
1135 88 721 8.5999999999999999e-01 4.8820221175751888e+00 2.1250143340597162e+01 1.5158198490037023e+01 1 0 0
1290 100 727 2.9999999999999999e-02 1.1346025582412569e+00 1.2187141253544279e+01 1.3830783080248413e+01 0 0 0
918 71 722 -4.5000000000000001e-01 8.1733557951189635e+00 1.5397609261029562e+01 1.8258569949784224e+01 1 0 0
572 44 728 5.9999999999999998e-02 1.1900223555737488e+00 1.5214857325267982e+01 1.7991217149127621e+01 0 0 0
922 71 728 5.9999999999999998e-02 1.0545765501635699e+01 1.6517673222853198e+01 1.9126161791676363e+01 1 0 0
1138 88 726 2.9999999999999999e-02 5.2442861115820749e+00 1.9410482840544063e+01 1.7810985809246997e+01 1 0 0
731 57 727 2.9999999999999999e-02 2.2614997834821953e+00 1.7288656662010446e+01 1.2613914504762356e+01 1 -1 0
779 60 728 5.9999999999999998e-02 7.9626692388607783e+00 2.0545364337766401e+01 1.5632785684273340e+01 0 0 -1
685 53 725 -1.0000000000000001e-01 3.6485897460286973e+00 1.8559475075040261e+01 2.1905115374786035e+01 1 0 -1
149 12 726 2.9999999999999999e-02 9.6612681177186328e+00 1.2373486122453052e+01 2.3099981439977221e+01 1 0 0
101 8 721 -5.0000000000000000e-01 8.7294031551381828e+00 2.3516170607425892e+01 1.2935122692259242e+01 0 -1 0
290 23 721 8.5999999999999999e-01 5.4374449735296402e+00 2.2906187451045390e+01 2.0863019259319618e+01 -1 -1 0
147 12 721 8.5999999999999999e-01 7.0772238089288271e+00 1.3122280015791766e+01 2.4319002176311123e+01 1 0 0
218 17 721 -5.0000000000000000e-01 1.1904471081751746e+00 2.0238601313902151e+01 1.9299647911214048e+01 1 0 0
1031 80 721 8.5999999999999999e-01 6.8144302781935062e+00 1.4080236659516274e+01 1.2974039014057343e+01 0 0 1
1294 100 726 2.9999999999999999e-02 2.1836909355253917e+00 1.3184469174571534e+01 1.2261951234307974e+01 0 0 0
1296 100 725 -1.0000000000000001e-01 4.5755580401963397e-02 1.4033990329724315e+01 1.4539988927403796e+01 0 0 0
914 71 721 8.5999999999999999e-01 7.4496506538702807e+00 1.6456162465833721e+01 1.7854871856419841e+01 1 0 0
1099 85 726 2.9999999999999999e-02 4.2599934616078636e+00 1.2197218946611596e+01 2.1503777673050500e+01 1 0 0
734 57 726 2.9999999999999999e-02 2.8522387299172918e+00 2.0329399377899939e+01 1.2936158716860122e+01 1 -1 0
675 52 728 5.9999999999999998e-02 1.0672099516610611e+01 1.4249860141945177e+01 1.2396752824573351e+01 0 0 1
289 23 727 2.9999999999999999e-02 7.1067663071557288e+00 2.1863581769261799e+01 2.2709006963160334e+01 -1 -1 0
688 53 728 5.9999999999999998e-02 2.9976035658878843e+00 1.9219067084687964e+01 2.1426870283456783e+01 1 0 -1
292 23 726 2.9999999999999999e-02 8.0593138372834474e+00 2.1979089286562754e+01 1.9957847152291382e+01 -1 -1 0
1293 100 726 2.9999999999999999e-02 1.8090997613126791e+00 1.4856531591299731e+01 1.2734901576317014e+01 0 0 0
1132 88 723 2.0999999999999999e-01 5.1059342436939241e+00 1.9618005599645151e+01 1.6764826363139175e+01 1 0 0
334 26 725 -1.0000000000000001e-01 1.0698852361182349e+01 1.3010838327767297e+01 1.5625302325806711e+01 -1 -1 0
776 60 725 -1.0000000000000001e-01 8.3725112752937569e+00 2.0245058013367391e+01 1.4691303108864844e+01 0 0 -1
806 62 728 5.9999999999999998e-02 1.1736472226652337e+01 2.1259480437508685e+01 2.3628620885380027e+01 -1 0 0
923 71 728 5.9999999999999998e-02 1.0650399169809935e+01 1.4716130333515531e+01 1.9576140147479148e+01 1 0 0
212 17 721 8.5999999999999999e-01 5.6926611709307917e-01 2.1581283095189001e+01 1.9652082512907157e+01 1 0 0
775 60 722 -4.5000000000000001e-01 9.7989728487642882e+00 1.8305816025025429e+01 1.4476957222829972e+01 0 0 -1
298 23 728 5.9999999999999998e-02 8.2303537845423751e+00 1.9792235703584439e+01 2.2033040495585830e+01 -1 -1 0
805 62 728 5.9999999999999998e-02 1.0090237982959293e+01 2.1670115160986185e+01 2.3054844958782571e+01 -1 0 0
565 44 726 2.9999999999999999e-02 1.2455862256149508e+00 1.2144446857601009e+01 1.8428020913027822e+01 0 0 0
14 2 723 2.0999999999999999e-01 5.5040409736038551e+00 1.2626194121551661e+01 1.8194513493708882e+01 0 -1 0
1206 93 721 -5.0000000000000000e-01 1.0659377261835841e+01 2.2782971513072503e+01 1.6198699562322126e+01 0 0 0
150 12 726 2.9999999999999999e-02 9.6023152426769300e+00 1.4177142788060292e+01 2.2829144042770622e+01 1 0 0
683 53 726 2.9999999999999999e-02 1.9005099445106319e+00 1.5752319676928336e+01 2.1184186267827236e+01 1 0 -1
1143 88 728 5.9999999999999998e-02 2.1913177248895654e+00 1.8525906642100935e+01 1.5292271946171105e+01 1 0 0
804 62 728 5.9999999999999998e-02 1.1430950546172937e+01 2.2903733926119415e+01 2.3091422480363914e+01 -1 0 0
1299 100 728 5.9999999999999998e-02 2.8232445961693503e-01 1.5086024579028818e+01 1.4728131633310424e+01 0 0 0
299 23 728 5.9999999999999998e-02 7.4494396059692711e+00 1.9890789235429487e+01 2.0402357758736603e+01 -1 -1 0
921 71 728 5.9999999999999998e-02 1.0503232260919717e+01 1.5933552915170145e+01 2.0676942921497158e+01 1 0 0
1139 88 722 -4.5000000000000001e-01 3.8781198216875343e+00 2.0461370547198726e+01 1.5112945059663611e+01 1 0 0
297 23 728 5.9999999999999998e-02 6.4906916561453585e+00 1.9484145448777660e+01 2.1878525935167524e+01 -1 -1 0
1137 88 726 2.9999999999999999e-02 5.6341044598685590e+00 1.8796886081285429e+01 1.6313320161664382e+01 1 0 0
769 60 724 1.6000000000000000e-01 8.4509082194423844e+00 1.8753841590881422e+01 1.4546544099454039e+01 0 0 -1
686 53 721 -5.0000000000000000e-01 5.0493068025485810e+00 1.5148998043971078e+01 2.3025654450648677e+01 1 0 -1
799 62 726 2.9999999999999999e-02 8.6760315778279828e+00 2.3468080865690084e+01 2.4039050892514723e+01 -1 0 0
466 36 728 5.9999999999999998e-02 2.7039390873324574e+00 2.3515473452759174e+01 1.3707931250762288e+01 1 0 -1
1140 88 725 -1.0000000000000001e-01 3.0719346920678436e+00 1.8253067964351509e+01 1.5823421045700906e+01 1 0 0
774 60 726 2.9999999999999999e-02 7.0029573154562259e+00 1.7672074286334102e+01 1.3289077023946069e+01 0 0 -1
680 53 721 8.5999999999999999e-01 4.5194617717264087e+00 1.5623977521232497e+01 2.1673307363785145e+01 1 0 -1
240 19 726 2.9999999999999999e-02 6.4240119999277590e-01 2.0078743269180983e+01 1.6231260416012198e+01 0 -1 0
1144 88 728 5.9999999999999998e-02 2.5235821900751736e+00 1.7678274035667954e+01 1.6578136921752517e+01 1 0 0
773 60 726 2.9999999999999999e-02 7.7380791788968963e+00 1.9062438846156631e+01 1.2550009961103649e+01 0 0 -1
682 53 726 2.9999999999999999e-02 2.1375150391834916e+00 1.7235405342733515e+01 2.0274559110508086e+01 1 0 -1
1291 100 721 8.5999999999999999e-01 3.4211512289019117e+00 1.3864480788312358e+01 1.5080894579900091e+01 0 0 0
777 60 721 -5.0000000000000000e-01 1.1238821405911315e+01 1.7281018278955720e+01 1.4404614179157003e+01 0 0 -1
772 60 722 -4.5000000000000001e-01 8.9363703872192062e+00 1.7431185244090159e+01 1.2698598540772499e+01 0 0 -1
1176 91 726 2.9999999999999999e-02 8.2298786037736384e+00 2.3850875564566749e+01 1.6059715495686632e+01 0 0 -1
681 53 722 -4.5000000000000001e-01 3.7293357552291315e+00 1.5836783663144455e+01 2.0587561557249096e+01 1 0 -1
1182 91 728 5.9999999999999998e-02 8.3763054541716624e+00 2.4136765208398089e+01 1.8555061896959490e+01 0 0 -1
293 23 726 2.9999999999999999e-02 8.7260049482952695e+00 2.3059394614545710e+01 2.1300909989042093e+01 -1 -1 0
144 12 723 2.0999999999999999e-01 9.2631851822561480e+00 1.3314673587873054e+01 2.3446949897013603e+01 1 0 0
1264 98 727 2.9999999999999999e-02 1.1652379724566513e+01 2.3024095370469496e+01 1.9372870718004076e+01 0 -1 0
288 23 724 1.6000000000000000e-01 7.0477846787266367e+00 2.1525659541829633e+01 2.1676318864782896e+01 -1 -1 0
331 26 726 2.9999999999999999e-02 1.1362489124167638e+01 1.4093940514568091e+01 1.7708617731944997e+01 -1 -1 0
1289 100 724 1.6000000000000000e-01 1.3602080123254003e+00 1.3236764230074941e+01 1.4219057002937076e+01 0 0 0
4 1 721 8.5999999999999999e-01 1.1822844288016109e+01 1.9387016355023725e+01 1.9586523962181609e+01 2 0 0
679 53 727 2.9999999999999999e-02 2.2240531134432695e+00 1.7309655227609106e+01 2.2983495363702637e+01 1 0 -1
737 57 725 -1.0000000000000001e-01 4.2698240258822446e+00 1.8166505737772390e+01 1.2352905102800754e+01 1 -1 0
1 1 723 2.0999999999999999e-01 1.1526968940617595e+01 1.9579282684397967e+01 1.7326466997012663e+01 2 0 0
1037 80 721 -5.0000000000000000e-01 8.3492734797049888e+00 1.3800747729928492e+01 1.3288557315404978e+01 0 0 1
6 1 726 2.9999999999999999e-02 1.1606527017765943e+01 1.8982604003809776e+01 1.6385554606491116e+01 2 0 0
338 26 728 5.9999999999999998e-02 1.0606870164720828e+01 1.2400273712248776e+01 1.4763568112788397e+01 -1 -1 0
336 26 728 5.9999999999999998e-02 1.1139035439706285e+01 1.3981200302226172e+01 1.5243664290401448e+01 -1 -1 0
464 36 725 -1.0000000000000001e-01 1.8261769687379719e+00 2.3665635441086302e+01 1.4300957944447646e+01 1 0 -1
330 26 722 -4.5000000000000001e-01 1.1583062183419436e+01 1.2431823318786870e+01 1.8880328554150918e+01 -1 -1 0
148 12 722 -4.5000000000000001e-01 7.8771992082014215e+00 1.3185166147750644e+01 2.3247520194056172e+01 1 0 0
95 8 721 8.5999999999999999e-01 7.4647899372979847e+00 2.4023995773620598e+01 1.2147892832378320e+01 0 -1 0
1209 93 728 5.9999999999999998e-02 1.1163108568796469e+01 2.1304479056936358e+01 1.3112970710742477e+01 0 0 0
235 19 723 2.0999999999999999e-01 -2.1989134227274784e-01 2.0692043198157926e+01 1.5949319755373930e+01 0 -1 0
1201 93 722 -4.5000000000000001e-01 1.1948980868863170e+01 2.4138827349867803e+01 1.4091967763633045e+01 0 0 0
714 55 728 5.9999999999999998e-02 2.9096162646996199e-01 2.2119414139040387e+01 2.4026979606779637e+01 1 -2 -1
704 55 724 1.6000000000000000e-01 3.0885284073559832e-01 1.9976961575155670e+01 2.4262634958597744e+01 1 -2 -1
239 19 722 -4.5000000000000001e-01 -3.2697719968834665e-01 2.0723593983359052e+01 1.4531907082789926e+01 0 -1 0
1174 91 721 8.5999999999999999e-01 5.5351811270651385e+00 2.4549283207587209e+01 1.7275329342498356e+01 0 0 -1
18 2 722 -4.5000000000000001e-01 5.9029104204369878e+00 1.2214860021188734e+01 1.9479600735081085e+01 0 -1 0
215 17 726 2.9999999999999999e-02 1.4026837488564790e+00 2.4458664949508993e+01 2.0289101790913815e+01 1 0 0
214 17 726 2.9999999999999999e-02 -2.4051801370955417e-01 2.4482821753465977e+01 2.0266910833876100e+01 1 0 0
25 2 728 5.9999999999999998e-02 6.0946483229445292e+00 1.2190295854376831e+01 1.5410189675035182e+01 0 -1 0
19 2 726 2.9999999999999999e-02 4.5393677324873325e+00 1.2227944377390338e+01 1.7837427605548253e+01 0 -1 0
1032 80 722 -4.5000000000000001e-01 7.2463016350049463e+00 1.3130378997031128e+01 1.2137232966699228e+01 0 0 1
711 55 725 -1.0000000000000001e-01 8.1765078550279102e-01 2.1366803330804949e+01 2.4576665243008581e+01 1 -2 -1
730 57 724 1.6000000000000000e-01 2.7473256889318902e+00 1.8124531371260900e+01 1.2172285250458893e+01 1 -1 0
715 55 728 5.9999999999999998e-02 1.8749676032879063e+00 2.1377458747851300e+01 2.4450488616947357e+01 1 -2 -1
808 63 724 1.6000000000000000e-01 1.4828498827567788e+01 1.1059981201628586e+01 3.1414290376706360e+00 -1 0 0
1025 79 728 5.9999999999999998e-02 1.3254816957660593e+01 9.1694777606110183e+00 9.0763182289949693e+00 0 0 0
1016 79 724 1.6000000000000000e-01 1.5390239216411750e+01 9.3598065960850754e+00 9.1607808016454779e+00 0 0 0
670 52 726 2.9999999999999999e-02 1.3338236328898429e+01 1.2085642112457752e+01 1.1927221936898690e+01 0 0 1
1022 79 722 -4.5000000000000001e-01 1.5252306106040846e+01 1.0432039656352204e+01 1.0061657452072497e+01 0 0 0
76 6 728 5.9999999999999998e-02 2.1133514791147359e+01 8.4653950454839988e-01 8.8886344135068427e+00 -1 0 0
1007 78 726 2.9999999999999999e-02 1.5052191508662366e+01 5.4574837761902684e+00 2.7697920294947349e+00 0 1 0
853 66 722 -4.5000000000000001e-01 1.7264147526294792e+01 3.1622222331205547e+00 8.9071928316118925e+00 0 1 0
408 32 722 -4.5000000000000001e-01 1.9592315745977288e+01 2.0528538514146568e+00 6.0761089641449555e+00 0 1 0
1015 79 723 2.0999999999999999e-01 1.5692093053430376e+01 1.0160924578373150e+01 7.9326593866010624e+00 0 0 0
546 42 728 5.9999999999999998e-02 2.3338972081122019e+01 4.7298241616352401e+00 4.4164572908216337e+00 -1 0 1
115 9 728 5.9999999999999998e-02 2.0133184124069839e+01 9.4287640568901825e+00 6.3362786448264892e+00 -1 0 0
415 32 728 5.9999999999999998e-02 2.0847108728994300e+01 3.9753594976387068e+00 3.0856419139557443e+00 0 1 0
411 32 722 -4.5000000000000001e-01 2.1249233287531919e+01 2.2422788287136863e+00 4.8493127494282984e+00 0 1 0
108 9 721 8.5999999999999999e-01 1.7325145309150756e+01 6.1994163728147811e+00 5.6842626349706897e+00 -1 0 0
1062 82 725 -1.0000000000000001e-01 1.9946547922150362e+01 1.1807261176626954e+01 7.4532707310794901e+00 -1 0 0
388 30 728 5.9999999999999998e-02 2.3282157883952546e+01 1.1053759551408870e+01 4.4155492117944206e+00 -1 1 1
939 73 727 2.9999999999999999e-02 1.9863090131430070e+01 5.1103445843454329e+00 1.0436449615454221e+01 0 0 -1
811 63 722 -4.5000000000000001e-01 1.3987012777690955e+01 9.0369660393027509e+00 3.5844818480412508e+00 -1 0 0
406 32 727 2.9999999999999999e-02 2.1796674421711366e+01 4.1393834018521822e+00 5.5505816415697939e+00 0 1 0
405 32 724 1.6000000000000000e-01 2.0983742427711810e+01 3.5761076454733849e+00 5.1440216672857515e+00 0 1 0
257 20 721 -5.0000000000000000e-01 1.7100869440883301e+01 1.2016616768455648e+01 5.3104923266219588e+00 -1 0 0
66 6 723 2.0999999999999999e-01 2.3075663973486616e+01 2.1390607299434516e+00 1.0644901617316352e+01 -1 0 0
855 66 721 -5.0000000000000000e-01 1.6796744987385136e+01 4.1186847342449031e+00 1.0470538582217129e+01 0 1 0
1157 89 728 5.9999999999999998e-02 1.3916524159658291e+01 1.3364082456500217e+00 2.5375374631075454e-01 0 0 0
348 27 721 -5.0000000000000000e-01 1.3662890686345019e+01 2.6511776319450497e+00 4.2960880841985780e+00 0 0 1
438 34 725 -1.0000000000000001e-01 1.2332533863250536e+01 4.4346515374331332e+00 1.0555903889768910e+01 0 0 0
968 75 726 2.9999999999999999e-02 1.3244029763748950e+01 1.1854858966897043e+01 3.6320334431524902e-02 0 0 1
71 6 726 2.9999999999999999e-02 2.3222058288207336e+01 1.0527188250798671e+00 1.0510044061692856e+01 -1 0 0
1057 82 721 8.5999999999999999e-01 1.8974640905804115e+01 1.1117990173518812e+01 1.0908284193925661e+01 -1 0 0
1092 84 728 5.9999999999999998e-02 2.1783694828060813e+01 8.3051717527651121e+00 1.6661189392763989e+00 0 1 1
943 73 726 2.9999999999999999e-02 1.8202692962937157e+01 6.6665632734031250e+00 1.0474766286315759e+01 0 0 -1
503 39 725 -1.0000000000000001e-01 1.2591446474264275e+01 6.3871209777881113e+00 5.5823220611571536e+00 -1 0 1
660 51 721 -5.0000000000000000e-01 2.3246978842541605e+01 8.3094999250574997e+00 6.1886466471317556e+00 0 -1 0
1055 82 724 1.6000000000000000e-01 1.9807043192356211e+01 1.2016344703239715e+01 8.9832366013697111e+00 -1 0 0
1017 79 727 2.9999999999999999e-02 1.6190545851828450e+01 8.6795414774746007e+00 9.4186733267331864e+00 0 0 0
1087 84 722 -4.5000000000000001e-01 1.9708546863188527e+01 6.9075848215998743e+00 1.0017806550925246e+00 0 1 1
542 42 725 -1.0000000000000001e-01 2.3890971256961269e+01 5.0698102799987890e+00 3.5421717662941323e+00 -1 0 1
412 32 725 -1.0000000000000001e-01 2.0309248996768648e+01 4.2752158163240530e+00 3.9368341598079826e+00 0 1 0
849 66 721 8.5999999999999999e-01 1.6433380129049777e+01 4.3453841562965021e+00 9.0273664709475927e+00 0 1 0
69 6 721 8.5999999999999999e-01 2.3145332839721014e+01 3.6372473258472158e+00 8.7882574318280380e+00 -1 0 0
852 66 726 2.9999999999999999e-02 1.5063716628931717e+01 2.8939212859055594e+00 6.7712006467552994e+00 0 1 0
856 66 728 5.9999999999999998e-02 1.5844743265858035e+01 1.1255515102011489e+00 1.0002236300069006e+01 0 1 0
67 6 724 1.6000000000000000e-01 2.1630651675519108e+01 2.5441990539185029e+00 1.0291101962621726e+01 -1 0 0
409 32 726 2.9999999999999999e-02 1.9211364971156922e+01 4.0667995091936548e+00 6.3370514730368424e+00 0 1 0
1006 78 722 -4.5000000000000001e-01 1.6932814368952531e+01 4.7789059788023343e+00 2.3774651804047542e+00 0 1 0
389 30 728 5.9999999999999998e-02 2.1654929835669247e+01 1.1781605629306476e+01 4.3534746015436916e+00 -1 1 1
414 32 728 5.9999999999999998e-02 1.9273765426291941e+01 4.1997663562175385e+00 3.7193879210601262e+00 0 1 0
850 66 722 -4.5000000000000001e-01 1.5212898222089143e+01 3.8795130183915782e+00 8.6878911073433525e+00 0 1 0
545 42 728 5.9999999999999998e-02 2.4419491424844363e+01 6.0204262398883959e+00 3.7523579126827666e+00 -1 0 1
407 32 721 8.5999999999999999e-01 2.0311660264543946e+01 1.3396416395191129e+00 5.2369504674650482e+00 0 1 0
1020 79 726 2.9999999999999999e-02 1.5200160856628536e+01 9.8879834703914415e+00 7.0403349107261350e+00 0 0 0
1002 78 723 2.0999999999999999e-01 1.5824853051741758e+01 5.5426659774148295e+00 1.9946493712273046e+00 0 1 0
544 42 728 5.9999999999999998e-02 2.3263095737067374e+01 5.3749315095123871e+00 2.6937277001292403e+00 -1 0 1
1082 84 727 2.9999999999999999e-02 1.8620406931315955e+01 8.5020281863210023e+00 1.5801949313721879e+00 0 1 1
343 27 722 -4.5000000000000001e-01 1.5273156644684143e+01 1.0431355006454734e+00 4.8433359967721525e+00 0 0 1
441 34 728 5.9999999999999998e-02 1.2511132864419725e+01 3.7854733653202710e+00 9.6106400757674280e+00 0 0 0
539 42 726 2.9999999999999999e-02 2.3082671118145946e+01 2.6380746427108717e+00 2.6162966633284306e+00 -1 0 1
1027 79 728 5.9999999999999998e-02 1.4095463349604271e+01 7.9106877759787144e+00 8.3020589497261739e+00 0 0 0
854 66 725 -1.0000000000000001e-01 1.6457770280261439e+01 8.9230200179792296e-01 9.1925131930902833e+00 0 1 0
1091 84 728 5.9999999999999998e-02 2.0991548206779164e+01 9.9204368496804776e+00 1.6098882425242418e+00 0 1 1
1090 84 728 5.9999999999999998e-02 2.0639458583167968e+01 8.7373739524807963e+00 2.9723948891598897e+00 0 1 1
505 39 728 5.9999999999999998e-02 1.3385469018074650e+01 7.0879310784308220e+00 5.5852428087698058e+00 -1 0 1
1088 84 725 -1.0000000000000001e-01 2.0852768371039375e+01 8.8225001577292748e+00 1.8946774461530604e+00 0 1 1
1021 79 726 2.9999999999999999e-02 1.6739707478753306e+01 1.0116004950295055e+01 7.7999162626510632e+00 0 0 0
1026 79 728 5.9999999999999998e-02 1.3890391999308234e+01 7.8708278986802584e+00 9.9863223883327752e+00 0 0 0
410 32 726 2.9999999999999999e-02 2.0676031757468124e+01 3.2763226716788325e+00 7.1616754513000602e+00 0 1 0
807 63 723 2.0999999999999999e-01 1.4652496850353673e+01 1.0055851955429850e+01 4.2701192788276723e+00 -1 0 0
937 73 723 2.0999999999999999e-01 1.8963873265184304e+01 7.0933756668874226e+00 1.1157731956868817e+01 0 0 -1
814 63 722 -4.5000000000000001e-01 1.4463954519341808e+01 1.0359481035907470e+01 2.0606107237405058e+00 -1 0 0
817 63 728 5.9999999999999998e-02 1.2940322763796768e+01 1.1979069123293760e+01 3.1481084632342240e+00 -1 0 0
105 9 723 2.0999999999999999e-01 1.8444041283688644e+01 7.5252352039762993e+00 7.3510351847124022e+00 -1 0 0
107 9 727 2.9999999999999999e-02 2.0165748034922519e+01 6.7235397254598093e+00 6.4411510630840692e+00 -1 0 0
1061 82 722 -4.5000000000000001e-01 1.9434332264700526e+01 1.0867961195531750e+01 9.6840079120196059e+00 -1 0 0
1003 78 724 1.6000000000000000e-01 1.5339727099294000e+01 4.7239121715743906e+00 7.8240189365645363e-01 0 1 0
1008 78 726 2.9999999999999999e-02 1.6071069374019409e+01 6.6153837743912769e+00 1.8137091501393967e+00 0 1 0
114 9 721 -5.0000000000000000e-01 1.5912876519709634e+01 5.8833881684338847e+00 6.0250862523506346e+00 -1 0 0
111 9 726 2.9999999999999999e-02 1.8801420603015920e+01 7.1046540176552382e+00 8.2176732953747091e+00 -1 0 0
491 38 721 -5.0000000000000000e-01 2.4553266312485562e+01 1.0335837941079106e+01 1.1255915165394055e+00 1 0 1
106 9 724 1.6000000000000000e-01 1.9323349295077449e+01 7.3400789154533674e+00 6.1317205605052392e+00 -1 0 0
1014 78 728 5.9999999999999998e-02 1.3510834716994227e+01 4.0013507750251884e+00 -2.4912287056949831e-01 0 1 0
1080 84 723 2.0999999999999999e-01 1.9388582806566024e+01 8.7539872137264894e+00 -2.6486372996643742e-01 0 1 1
342 27 721 8.5999999999999999e-01 1.4591568215957839e+01 1.6191474532986798e+00 3.8349112788218491e+00 0 0 1
72 6 726 2.9999999999999999e-02 2.3444700447476759e+01 2.4721566362556739e+00 1.1599704405439111e+01 -1 0 0
847 66 724 1.6000000000000000e-01 1.6636670535422834e+01 2.1093395497149072e+00 8.2660365323098191e+00 0 1 0
813 63 726 2.9999999999999999e-02 1.5665901823910739e+01 9.7478024175556399e+00 4.6962407139862679e+00 -1 0 0
386 30 725 -1.0000000000000001e-01 2.2451533555739907e+01 1.1430236986975833e+01 5.0810879721892350e+00 -1 1 1
857 66 728 5.9999999999999998e-02 1.7447805116896035e+01 5.7359453465644583e-01 9.5517703662865383e+00 0 1 0
78 6 728 5.9999999999999998e-02 2.0733724253708075e+01 6.6285241546382778e-01 1.0671564967817627e+01 -1 0 0
68 6 727 2.9999999999999999e-02 2.1197860964938279e+01 3.0805383294889950e+00 1.1144520465875029e+01 -1 0 0
940 73 721 8.5999999999999999e-01 2.1063978988576043e+01 7.7804140685198560e+00 1.0625893635198377e+01 0 0 -1
116 9 728 5.9999999999999998e-02 1.9140115501061636e+01 9.0874173111414791e+00 4.9103606233669659e+00 -1 0 0
413 32 721 -5.0000000000000000e-01 2.1702465916845114e+01 6.9290482881297222e-01 5.5319465936057144e+00 0 1 0
810 63 721 8.5999999999999999e-01 1.3824076225882571e+01 9.2520077488018124e+00 2.2965080675115779e+00 -1 0 0
816 63 721 -5.0000000000000000e-01 1.3659115180493433e+01 8.5204840124071239e+00 9.3169421149481868e-01 -1 0 0
1019 79 722 -4.5000000000000001e-01 1.5468513002973481e+01 1.1499233634680440e+01 8.3639813724977508e+00 0 0 0
362 28 728 5.9999999999999998e-02 1.2457174489324611e+01 1.1546561641811147e+01 7.7001702254287432e+00 -1 0 1
346 27 722 -4.5000000000000001e-01 1.3649223440738327e+01 6.3019966441038699e-01 3.5819025091865155e+00 0 0 1
1018 79 721 8.5999999999999999e-01 1.5388910631188963e+01 1.1683369229416039e+01 9.6464569533792446e+00 0 0 0
416 32 728 5.9999999999999998e-02 2.0529775758960863e+01 5.3665894443314315e+00 3.9172609767508355e+00 0 1 0
74 6 725 -1.0000000000000001e-01 2.0792818651966556e+01 1.3223448652010856e+00 9.8385048995137296e+00 -1 0 0
440 34 728 5.9999999999999998e-02 1.3292818378850411e+01 4.7662503691795157e+00 1.0902944699745809e+01 0 0 0
486 38 722 -4.5000000000000001e-01 2.4347222327611316e+01 8.3445707832558433e+00 3.4458855546098460e-01 1 0 1
846 66 723 2.0999999999999999e-01 1.5238406390185977e+01 2.7075420916847572e+00 7.8345402992340869e+00 0 1 0
858 66 728 5.9999999999999998e-02 1.6004071305304848e+01 1.5741712208199135e-01 8.5650167347743018e+00 0 1 0
1066 82 728 5.9999999999999998e-02 1.9131221421772096e+01 1.1150169038478642e+01 7.1371433290503736e+00 -1 0 0
848 66 727 2.9999999999999999e-02 1.7345326724801744e+01 1.9211974323539580e+00 7.4213769783680403e+00 0 1 0
117 9 728 5.9999999999999998e-02 2.0704428209804295e+01 8.5068926048039639e+00 4.9711461812691535e+00 -1 0 0
753 58 728 5.9999999999999998e-02 1.5903147750646111e+01 7.7514047392235277e+00 1.1606134885087872e+01 1 0 1
812 63 726 2.9999999999999999e-02 1.4009186953722823e+01 1.0378613414537593e+01 5.0671256964956788e+00 -1 0 0
377 29 728 5.9999999999999998e-02 2.3589571036748303e+01 4.3403019232546181e-01 8.1393644905700544e+00 0 1 0
339 27 723 2.0999999999999999e-01 1.5017841277097595e+01 -3.3777192054416250e-01 5.0617764176901865e+00 0 0 1
1012 78 728 5.9999999999999998e-02 1.3236182804553891e+01 5.3773990834409249e+00 7.9988305186249709e-01 0 1 0
1011 78 721 -5.0000000000000000e-01 1.7303673512947793e+01 2.3506465687743048e+00 2.0790671043050604e+00 0 1 0
540 42 726 2.9999999999999999e-02 2.4199907724936097e+01 1.9083203796690935e+00 3.8654516166663084e+00 -1 0 1
944 73 722 -4.5000000000000001e-01 2.1153187870220080e+01 6.5355796669147592e+00 1.0813842573256165e+01 0 0 -1
654 51 721 8.5999999999999999e-01 2.4303367401203140e+01 8.5581170334456971e+00 7.2952994617029310e+00 0 -1 0
1153 89 725 -1.0000000000000001e-01 1.3580913760198568e+01 5.3830730352781353e-01 -3.5739333909990334e-01 0 0 0
259 20 728 5.9999999999999998e-02 1.9653621021512578e+01 1.1902555105012432e+01 2.5471553871060633e+00 -1 0 0
113 9 725 -1.0000000000000001e-01 1.9831882519119425e+01 8.6642751358557906e+00 5.5910944366258866e+00 -1 0 0
946 73 721 -5.0000000000000000e-01 2.2053151372076069e+01 8.1602681464449809e+00 9.5298380359202248e+00 0 0 -1
110 9 726 2.9999999999999999e-02 1.8119947139853156e+01 8.5881743855663757e+00 7.4318165452832163e+00 -1 0 0
809 63 727 2.9999999999999999e-02 1.5842872782566085e+01 1.1380715803779653e+01 3.0350539373758063e+00 -1 0 0
1050 81 721 -5.0000000000000000e-01 2.0872064331118903e+01 1.9209119158817602e+00 9.4013994666310607e-01 0 2 0
404 32 723 2.0999999999999999e-01 2.0044241180228116e+01 3.3583034869393691e+00 6.2721528954156254e+00 0 1 0
1013 78 728 5.9999999999999998e-02 1.3589504142847883e+01 3.6552136935818456e+00 1.5305264663576470e+00 0 1 0
1004 78 727 2.9999999999999999e-02 1.5497037563189325e+01 5.3501217307957987e+00 -1.0457501389451523e-01 0 1 0
109 9 722 -4.5000000000000001e-01 1.7330051420971291e+01 6.6851326100150406e+00 6.9239713371505420e+00 -1 0 0
1005 78 721 8.5999999999999999e-01 1.7303983368337697e+01 3.7993115927318382e+00 1.5596591406104885e+00 0 1 0
112 9 722 -4.5000000000000001e-01 1.8507632290748074e+01 6.6402180853868904e+00 5.2263416827507827e+00 -1 0 0
73 6 722 -4.5000000000000001e-01 2.1878918631725718e+01 3.3761069077175847e+00 9.1983721673620806e+00 -1 0 0
851 66 726 2.9999999999999999e-02 1.4482302205701815e+01 1.9687579014068588e+00 8.2462922505852205e+00 0 1 0
77 6 728 5.9999999999999998e-02 1.9824637301338509e+01 1.6298656202510144e+00 9.7366566678516584e+00 -1 0 0
938 73 724 1.6000000000000000e-01 2.0015996426455690e+01 5.8956773445334756e+00 1.1177162193524355e+01 0 0 -1
1081 84 724 1.6000000000000000e-01 1.9583003975019203e+01 8.2904368110666748e+00 1.1246387674171974e+00 0 1 1
370 29 726 2.9999999999999999e-02 2.4190248781652819e+01 -2.8378299995239720e-01 5.6340572046269530e+00 0 1 0
70 6 722 -4.5000000000000001e-01 2.3777838922328446e+01 2.8478629584748654e+00 9.6654730994912068e+00 -1 0 0
390 30 728 5.9999999999999998e-02 2.2108736007208858e+01 1.0597788740558711e+01 5.7404038076793187e+00 -1 1 1
1010 78 725 -1.0000000000000001e-01 1.3819035821646217e+01 4.4400310249467170e+00 7.2625769543988594e-01 0 1 0
1023 79 725 -1.0000000000000001e-01 1.4132878640699733e+01 8.5462763478745245e+00 9.1550791242206220e+00 0 0 0
941 73 722 -4.5000000000000001e-01 1.9695488662890806e+01 8.0844123814742268e+00 1.0558270615332102e+01 0 0 -1
962 74 728 5.9999999999999998e-02 2.2765991435063405e+01 -1.9978941226386094e-02 1.4530745072856908e+00 0 2 0
534 42 723 2.0999999999999999e-01 2.4133496065284842e+01 2.5632781966968663e+00 2.9894507567873116e+00 -1 0 1
506 39 728 5.9999999999999998e-02 1.3039180416668906e+01 5.3976614018190121e+00 5.7723677057555474e+00 -1 0 1
1064 82 728 5.9999999999999998e-02 2.0930828023578446e+01 1.1385123787270233e+01 7.3171038537207886e+00 -1 0 0
1009 78 722 -4.5000000000000001e-01 1.6200908256021290e+01 3.6140933105294408e+00 7.7326386663331381e-01 0 1 0
1083 84 721 8.5999999999999999e-01 1.9565950664509725e+01 6.5014532356463981e+00 -2.6660728828723057e-01 0 1 1
478 37 721 -5.0000000000000000e-01 1.2638386241874652e+01 5.0812578067000136e-01 9.4369577234705933e+00 0 1 0
373 29 725 -1.0000000000000001e-01 2.4625202339848819e+01 9.8935106071772846e-02 8.0753395732098507e+00 0 1 0
1155 89 728 5.9999999999999998e-02 1.3223280235213194e+01 -1.6183863457644462e-01 3.4863074746042283e-01 0 0 0
497 39 727 2.9999999999999999e-02 1.2171939473664372e+01 5.9121734982478555e+00 3.5091639891087278e+00 -1 0 1
1063 82 721 -5.0000000000000000e-01 1.9247350463639531e+01 1.1991798002211521e+01 1.2096525345784196e+01 -1 0 0
1051 81 728 5.9999999999999998e-02 2.3807703296764799e+01 4.2610354664396066e+00 -3.6099503693733787e-01 0 2 0
584 45 728 5.9999999999999998e-02 2.0554825577230606e+01 2.7891790185001883e+00 1.5320466505287934e+01 0 0 0
1053 81 728 5.9999999999999998e-02 2.3696156878568988e+01 5.0399679406420734e+00 2.3102810807398420e+01 0 2 -1
1156 89 728 5.9999999999999998e-02 1.2768468900494234e+01 9.4701658849464154e-01 2.4088335040549225e+01 0 0 -1
61 5 725 -1.0000000000000001e-01 2.4132869069745325e+01 9.5987901889052747e+00 1.5509420235714149e+01 0 -1 0
185 15 727 2.9999999999999999e-02 2.1392680904007914e+01 6.6793369403907104e+00 1.9227247032612087e+01 -1 0 0
1149 89 722 -4.5000000000000001e-01 1.6738094201087318e+01 7.0657519133252022e-01 2.3228419361322814e+01 0 0 -1
184 15 724 1.6000000000000000e-01 2.1956702938281421e+01 7.4420127540990215e+00 1.9775821889468425e+01 -1 0 0
1146 89 724 1.6000000000000000e-01 1.4693348021663676e+01 -2.1783546861918481e-03 2.3897163016839876e+01 0 0 -1
743 58 724 1.6000000000000000e-01 1.4901644570065583e+01 8.8290558247923396e+00 1.3241050628456913e+01 1 0 1
569 44 721 -5.0000000000000000e-01 2.2570677902311335e+01 1.1340546086508429e+01 1.8349489838226283e+01 -1 0 0
1226 95 721 8.5999999999999999e-01 1.9442141200198332e+01 8.1283999633610353e+00 1.5936372843627995e+01 0 0 -1
1084 84 722 -4.5000000000000001e-01 1.9500396940147112e+01 7.5540232936399629e+00 2.4120647863183862e+01 0 1 0
754 58 728 5.9999999999999998e-02 1.5930719559382513e+01 6.9589864124422141e+00 1.3209403662678572e+01 1 0 1
40 4 723 2.0999999999999999e-01 1.7726366643286894e+01 3.5622686745083483e+00 2.1994992330303706e+01 -1 0 0
1074 83 722 -4.5000000000000001e-01 1.7106024544812438e+01 6.3679570176375699e-01 1.5378992179634567e+01 0 0 0
1231 95 725 -1.0000000000000001e-01 1.8056839326865568e+01 5.0633682173107788e+00 1.6031463199090478e+01 0 0 -1
751 58 721 -5.0000000000000000e-01 1.4604262461441383e+01 9.8377807351898277e+00 1.6012902744798541e+01 1 0 1
785 61 722 -4.5000000000000001e-01 1.4062975717657340e+01 8.9242842775297468e+00 1.9539656099098266e+01 0 0 -1
189 15 726 2.9999999999999999e-02 2.3499591296630641e+01 6.9024329525304644e+00 1.8408564159780145e+01 -1 0 0
42 4 727 2.9999999999999999e-02 1.6251537528721922e+01 5.1094512308864273e+00 2.1948501800452892e+01 -1 0 0
1043 81 727 2.9999999999999999e-02 2.1444377607593008e+01 4.2397762900857972e+00 2.2832048607502532e+01 0 2 -1
1049 81 725 -1.0000000000000001e-01 2.3137116898739507e+01 4.6582143745640439e+00 2.3954914441611418e+01 0 2 -1
564 44 722 -4.5000000000000001e-01 2.4595507795423998e+01 1.1298898229307673e+01 1.8221318335501827e+01 -1 0 0
760 59 726 2.9999999999999999e-02 2.3254821319831404e+01 4.8805718904451405e+00 1.2545889554064246e+01 0 0 0
1233 95 728 5.9999999999999998e-02 1.7208410267830420e+01 4.4762292233406145e+00 1.6430785624657453e+01 0 0 -1
620 48 725 -1.0000000000000001e-01 2.2613177033535855e+01 1.1161001748680469e+01 2.3183212877137723e+01 1 0 -1
49 4 721 -5.0000000000000000e-01 2.0216303658057210e+01 4.3808012961176201e+00 2.0065680477551759e+01 -1 0 0
963 75 723 2.0999999999999999e-01 1.3272323294737213e+01 1.1623178782633447e+01 2.4054021526468773e+01 0 0 0
46 4 726 2.9999999999999999e-02 1.7445816581224484e+01 3.5892029202819256e+00 2.3009890550446336e+01 -1 0 0
552 43 726 2.9999999999999999e-02 1.4252685628760931e+01 3.8862153860724011e+00 1.7230829385656005e+01 0 0 0
746 58 722 -4.5000000000000001e-01 1.2933853118356087e+01 8.4430525235777232e+00 1.4456208457874579e+01 1 0 1
985 76 721 -5.0000000000000000e-01 2.3330564846565075e+01 1.9545194524312950e+00 1.9893578060623582e+01 -2 0 0
190 15 722 -4.5000000000000001e-01 2.2494704492059057e+01 7.0427119928331345e+00 2.1056480200001296e+01 -1 0 0
580 45 722 -4.5000000000000001e-01 2.0652975376773703e+01 2.9407126400529260e-01 1.5249944677468090e+01 0 0 0
949 73 728 5.9999999999999998e-02 1.9102425360417786e+01 4.8839975902977075e+00 1.2890116537758264e+01 0 0 -1
789 61 725 -1.0000000000000001e-01 1.6833005329660423e+01 8.5644435051691996e+00 2.1001791615841139e+01 0 0 -1
44 4 722 -4.5000000000000001e-01 1.8999259490427121e+01 4.1860402917095305e+00 2.1784106800167095e+01 -1 0 0
1228 95 726 2.9999999999999999e-02 1.8110065858497226e+01 6.6319220648594239e+00 1.7992113224566772e+01 0 0 -1
1273 98 728 5.9999999999999998e-02 1.4072145671897466e+01 -2.1292799295221596e-01 1.8478669100268498e+01 0 0 0
51 4 728 5.9999999999999998e-02 1.6639797461993052e+01 3.2019487019651578e+00 1.9426731112107330e+01 -1 0 0
1227 95 722 -4.5000000000000001e-01 1.8705000482684923e+01 8.2462283934398641e+00 1.6996251760343132e+01 0 0 -1
1122 87 721 8.5999999999999999e-01 1.9393013169937749e+01 1.1302478981505399e+01 1.7604326882070161e+01 0 0 0
1047 81 726 2.9999999999999999e-02 2.2305290111074960e+01 2.1225523060147773e+00 2.2205494090087672e+01 0 2 -1
1154 89 721 -5.0000000000000000e-01 1.8158480086433510e+01 1.6259902775368476e-01 2.3320015538166192e+01 0 0 -1
64 5 728 5.9999999999999998e-02 2.3512008914547941e+01 1.0053964178976019e+01 1.6355474619159086e+01 0 -1 0
1224 95 724 1.6000000000000000e-01 1.7753216927198682e+01 6.5224842020125982e+00 1.5849090724896648e+01 0 0 -1
1225 95 727 2.9999999999999999e-02 1.6952899283199304e+01 6.6613951447330111e+00 1.5164272155229789e+01 0 0 -1
979 76 721 8.5999999999999999e-01 2.3381667139040122e+01 2.9724781776648497e+00 1.8783137854429118e+01 -2 0 0
980 76 722 -4.5000000000000001e-01 2.4526564324266136e+01 2.4583238893961679e+00 1.8372873707756149e+01 -2 0 0
948 73 728 5.9999999999999998e-02 2.0798827785907022e+01 4.4330638797258688e+00 1.2494077919704329e+01 0 0 -1
585 45 728 5.9999999999999998e-02 2.0440058192612195e+01 3.0567517892025107e+00 1.7150357475239826e+01 0 0 0
623 48 728 5.9999999999999998e-02 2.2829467509676569e+01 1.1052550760081207e+01 2.2139705551249623e+01 1 0 -1
983 76 722 -4.5000000000000001e-01 2.3825384588858068e+01 4.2313936222335986e+00 1.9063365970514521e+01 -2 0 0
52 4 728 5.9999999999999998e-02 1.5310716642761127e+01 4.2891737703671886e+00 1.9619083864643663e+01 -1 0 0
787 61 726 2.9999999999999999e-02 1.4875215602655940e+01 1.0954772835308765e+01 1.9333862247248110e+01 0 0 -1
786 61 726 2.9999999999999999e-02 1.5855980310109315e+01 9.6096622919416852e+00 1.8613247635562313e+01 0 0 -1
45 4 726 2.9999999999999999e-02 1.7855229351769058e+01 2.5624792928423545e+00 2.1602913623621522e+01 -1 0 0
1067 83 723 2.0999999999999999e-01 1.5072369692761685e+01 1.2769597392290464e+00 1.4879747240394613e+01 0 0 0
1078 83 728 5.9999999999999998e-02 1.6925851689114104e+01 8.0640502524296864e-01 1.2820414195995127e+01 0 0 0
758 59 721 8.5999999999999999e-01 2.3388278976729886e+01 4.9783264941953611e+00 1.5419930521140641e+01 0 0 0
188 15 726 2.9999999999999999e-02 2.3157941414422364e+01 8.7978617629773552e+00 1.8619378659069795e+01 -1 0 0
574 45 724 1.6000000000000000e-01 2.0957800013692143e+01 1.0581895104605430e+00 1.6398716320873920e+01 0 0 0
764 59 721 -5.0000000000000000e-01 2.2362440368560431e+01 5.3438816221614616e+00 1.6443502131160301e+01 0 0 0
579 45 726 2.9999999999999999e-02 2.0913208069982275e+01 1.4301788119500913e-01 1.8376861723728943e+01 0 0 0
1121 87 727 2.9999999999999999e-02 1.7116269757834115e+01 1.0869532038101864e+01 1.5752447439313608e+01 0 0 0
788 61 722 -4.5000000000000001e-01 1.4662951374498043e+01 9.2276935871587220e+00 2.1519817551022797e+01 0 0 -1
1151 89 726 2.9999999999999999e-02 1.5066579925398791e+01 1.2503654665660815e+00 2.2153316470675762e+01 0 0 -1
783 61 727 2.9999999999999999e-02 1.6103604772122605e+01 1.0660114840950014e+01 2.1363464415044817e+01 0 0 -1
48 4 725 -1.0000000000000001e-01 1.6017969433535832e+01 3.6913333415807967e+00 2.0228060973142274e+01 -1 0 0
745 58 721 8.5999999999999999e-01 1.3823136288794020e+01 8.6739323965553599e+00 1.5391971345335000e+01 1 0 1
749 58 722 -4.5000000000000001e-01 1.4969750503913238e+01 8.8763469117689411e+00 1.4692080069570132e+01 1 0 1
1072 83 726 2.9999999999999999e-02 1.4700926354183089e+01 8.1513811380318979e-01 1.3945250025822439e+01 0 0 0
1230 95 722 -4.5000000000000001e-01 1.8811902386624599e+01 7.1583850341924800e+00 1.5232631525183496e+01 0 0 -1
55 5 727 2.9999999999999999e-02 2.2235569829900779e+01 9.2059059266795753e+00 1.4622884411071981e+01 0 -1 0
964 75 724 1.6000000000000000e-01 1.4665104466116295e+01 1.1989702639572482e+01 2.3535156090456734e+01 0 0 0
1150 89 726 2.9999999999999999e-02 1.5138954156110021e+01 2.0370336060555401e+00 2.3606952542513270e+01 0 0 -1
1223 95 723 2.0999999999999999e-01 1.7731323045104773e+01 7.2216613001921184e+00 1.7157849009931557e+01 0 0 -1
575 45 727 2.9999999999999999e-02 2.2061946796956061e+01 1.1603502697277563e+00 1.6570483594735684e+01 0 0 0
782 61 724 1.6000000000000000e-01 1.5775981713767486e+01 9.6962836060631759e+00 2.0888423153500234e+01 0 0 -1
621 48 721 -5.0000000000000000e-01 1.8587088182015748e+01 1.1390232894396487e+01 2.3125033609797651e+01 1 0 -1
556 43 721 -5.0000000000000000e-01 1.4527735069718087e+01 4.7636077501630778e+00 1.3897120691601025e+01 0 0 0
781 61 723 2.0999999999999999e-01 1.5160670601864313e+01 9.8761329098763415e+00 1.9467369036118136e+01 0 0 -1
195 15 728 5.9999999999999998e-02 2.0899299088436972e+01 9.0874267349105846e+00 1.8822988790398490e+01 -1 0 0
47 4 722 -4.5000000000000001e-01 1.7811489429256387e+01 5.2321842170524704e+00 2.0471079397522590e+01 -1 0 0
41 4 724 1.6000000000000000e-01 1.6852517072614457e+01 4.4988385768728900e+00 2.1199817769511437e+01 -1 0 0
187 15 722 -4.5000000000000001e-01 2.4190874294106237e+01 7.7790919000562697e+00 2.0096409144735482e+01 -1 0 0
573 45 723 2.0999999999999999e-01 2.0429317224653495e+01 8.1181003640362168e-02 1.7438167935890412e+01 0 0 0
186 15 721 8.5999999999999999e-01 2.3775982884462543e+01 7.2418810154905309e+00 2.1190637261555089e+01 -1 0 0
1232 95 721 -5.0000000000000000e-01 1.9406301780477662e+01 8.4847305257686436e+00 1.4423840495535673e+01 0 0 -1
747 58 726 2.9999999999999999e-02 1.3271093926507813e+01 7.4033782355724220e+00 1.2825046381852120e+01 1 0 1
183 15 723 2.0999999999999999e-01 2.3253647512668323e+01 7.7743833669297482e+00 1.8984354217525702e+01 -1 0 0
57 5 722 -4.5000000000000001e-01 2.3552508842836954e+01 1.1224578281996907e+01 1.2699888421386824e+01 0 -1 0
50 4 728 5.9999999999999998e-02 1.5427564566721129e+01 3.0005860156000606e+00 2.0752419753401220e+01 -1 0 0
790 61 721 -5.0000000000000000e-01 1.3936367587330958e+01 7.1985317977676750e+00 2.0170633276674106e+01 0 0 -1
1234 95 728 5.9999999999999998e-02 1.8900964141028755e+01 4.7369202219968800e+00 1.6653190717003632e+01 0 0 -1
1145 89 723 2.0999999999999999e-01 1.5389264890138847e+01 1.0881987989023800e+00 2.3148942380074985e+01 0 0 -1
43 4 721 8.5999999999999999e-01 1.9117342618826481e+01 5.0979380734807833e+00 2.0862347510180175e+01 -1 0 0
193 15 728 5.9999999999999998e-02 2.1372255984477366e+01 9.3438524171664419e+00 2.0599947527313738e+01 -1 0 0
59 5 726 2.9999999999999999e-02 2.1890024739048524e+01 1.1474652507277444e+01 1.3919641108909419e+01 0 -1 0
755 59 723 2.0999999999999999e-01 2.3449135897063009e+01 5.7713815574869738e+00 1.3156620474925251e+01 0 0 0
581 45 725 -1.0000000000000001e-01 2.0200043178806055e+01 2.4033655589468834e+00 1.6292107998509383e+01 0 0 0
550 43 721 8.5999999999999999e-01 1.3323104875147340e+01 5.0008712908228432e+00 1.4718003339129105e+01 0 0 0
1052 81 728 5.9999999999999998e-02 2.2757502052386421e+01 5.4924495214832634e+00 2.4478686714678613e+01 0 2 -1
1071 83 722 -4.5000000000000001e-01 1.5131407200838458e+01 3.8166174282409210e-01 1.5964952826353413e+01 0 0 0
578 45 726 2.9999999999999999e-02 1.9349545156914658e+01 5.1682878951011174e-02 1.7578881586333274e+01 0 0 0
583 45 728 5.9999999999999998e-02 1.9171641733000104e+01 2.1273576543759343e+00 1.6251370805594746e+01 0 0 0
784 61 721 8.5999999999999999e-01 1.3708302009296499e+01 8.5427705891644248e+00 2.0805778646022031e+01 0 0 -1
613 48 724 1.6000000000000000e-01 2.1396675341380710e+01 1.2004328735367828e+01 2.3410737076889713e+01 1 0 -1
1148 89 721 8.5999999999999999e-01 1.7042653048623468e+01 -5.5644405423885310e-02 2.4330453227126977e+01 0 0 -1
793 61 728 5.9999999999999998e-02 1.6985455717292645e+01 8.2737719130740111e+00 2.2016699865842480e+01 0 0 -1
742 58 723 2.0999999999999999e-01 1.3429491824295267e+01 8.3932822815187969e+00 1.3142997387209913e+01 1 0 1
761 59 726 2.9999999999999999e-02 2.3095109286511889e+01 6.6055508290559555e+00 1.2588131460711326e+01 0 0 0
791 61 728 5.9999999999999998e-02 1.7737627277347521e+01 8.8332846152304665e+00 2.0586584559382963e+01 0 0 -1
194 15 728 5.9999999999999998e-02 2.0022387676727938e+01 8.3570028791662683e+00 2.0247118329565243e+01 -1 0 0
553 43 726 2.9999999999999999e-02 1.3306907783350942e+01 5.3464129581880151e+00 1.7892197881116722e+01 0 0 0
1075 83 725 -1.0000000000000001e-01 1.7029761347746764e+01 1.7690079697033101e+00 1.3338408187964950e+01 0 0 0
191 15 725 -1.0000000000000001e-01 2.1020717697156975e+01 8.6021933192094178e+00 1.9848187641148709e+01 -1 0 0
1077 83 728 5.9999999999999998e-02 1.6421008042365838e+01 2.5195225897971358e+00 1.2827310626183344e+01 0 0 0
622 48 728 5.9999999999999998e-02 2.3453219947861061e+01 1.1486874755646593e+01 2.3775744367717845e+01 1 0 -1
1235 95 728 5.9999999999999998e-02 1.8335011471266554e+01 4.7224722223043711e+00 1.5067228387918732e+01 0 0 -1
1120 87 724 1.6000000000000000e-01 1.7565377655855137e+01 1.1677982610370808e+01 1.6269596002724573e+01 0 0 0
530 41 721 -5.0000000000000000e-01 1.6476467686875569e+01 -5.3524203479418379e-02 1.9779782380008122e+01 -1 0 0
1041 81 723 2.0999999999999999e-01 2.2392752440347717e+01 2.3573183438736818e+00 2.3252497849937622e+01 0 2 -1
1046 81 726 2.9999999999999999e-02 2.3442631005315175e+01 2.1461708959630639e+00 2.3510669188412844e+01 0 2 -1
1048 81 722 -4.5000000000000001e-01 2.1111762428352350e+01 3.6097292560308922e+00 2.4592424208617928e+01 0 2 -1
1068 83 724 1.6000000000000000e-01 1.6480652029157699e+01 1.7687413941340153e+00 1.4746598868007819e+01 0 0 0
58 5 726 2.9999999999999999e-02 2.3438310540848850e+01 1.1801551275931178e+01 1.4704872554782117e+01 0 -1 0
945 73 725 -1.0000000000000001e-01 2.0132182013430640e+01 5.2745092313554061e+00 1.2597313785399612e+01 0 0 -1
1042 81 724 1.6000000000000000e-01 2.2037516591711007e+01 3.7995359720223569e+00 2.3624100094825607e+01 0 2 -1
179 14 721 -5.0000000000000000e-01 1.2201435728197714e+01 3.7223516554896698e+00 2.1782395189273853e+01 1 0 0
947 73 728 5.9999999999999998e-02 2.0508230030243372e+01 5.9732232620712979e+00 1.3380238503801445e+01 0 0 -1
792 61 728 5.9999999999999998e-02 1.6433235916191883e+01 7.6444336136348792e+00 2.0496431014949945e+01 0 0 -1
54 5 724 1.6000000000000000e-01 2.3178966119750804e+01 9.6709477431626958e+00 1.4378609588934784e+01 0 -1 0
459 36 721 8.5999999999999999e-01 2.4048467873122682e+01 1.2549666628607672e-01 1.4035164949124891e+01 0 1 -1
759 59 722 -4.5000000000000001e-01 2.2695025474777655e+01 5.4161606277546479e+00 1.4330829999021226e+01 0 0 0
1089 84 721 -5.0000000000000000e-01 1.8313927393470244e+01 5.9329375231838561e+00 2.4315613350766572e+01 0 1 0
969 75 726 2.9999999999999999e-02 1.3122830163535530e+01 1.0569799838783323e+01 2.3925715057124556e+01 0 0 0
1229 95 726 2.9999999999999999e-02 1.6696672520564906e+01 7.6219262054825379e+00 1.7365594094911643e+01 0 0 -1
465 36 721 -5.0000000000000000e-01 2.3899431679743444e+01 1.6260178012633215e+00 1.4240793005455462e+01 0 1 -1
1070 83 721 8.5999999999999999e-01 1.6371493626095333e+01 -4.1368769677655993e-02 1.6175223763114793e+01 0 0 0
563 44 721 8.5999999999999999e-01 2.3806470071780335e+01 1.1648978774177259e+01 1.9249715882253287e+01 -1 0 0
551 43 722 -4.5000000000000001e-01 1.3887527260582411e+01 5.2877584954874060e+00 1.5941597752247471e+01 0 0 0
748 58 726 2.9999999999999999e-02 1.2878659330796024e+01 8.9841065820484936e+00 1.2438716722853517e+01 1 0 1
53 5 723 2.0999999999999999e-01 2.2917106481525611e+01 1.1159330932853857e+01 1.3953910144848546e+01 0 -1 0
1128 87 721 -5.0000000000000000e-01 1.8892334985565601e+01 1.1528784098625810e+01 1.9032961265101964e+01 0 0 0
744 58 727 2.9999999999999999e-02 1.5021161139949132e+01 9.8731815778724901e+00 1.2843068778390798e+01 1 0 1
1126 87 722 -4.5000000000000001e-01 1.8036990581891672e+01 1.1241112930724578e+01 1.7483622269748501e+01 0 0 0
1069 83 727 2.9999999999999999e-02 1.6662687943373335e+01 2.7541841398489688e+00 1.5209469598269717e+01 0 0 0
1266 98 722 -4.5000000000000001e-01 1.2382578787118783e+01 -4.3603213442622496e-01 2.1595620643050651e+01 0 0 0
1073 83 726 2.9999999999999999e-02 1.4468764831745133e+01 2.1371465475096150e+00 1.5235652350457125e+01 0 0 0
965 75 727 2.9999999999999999e-02 1.5170518457722793e+01 1.1108083179960538e+01 2.3141577347999672e+01 0 0 0
1125 87 726 2.9999999999999999e-02 1.8940806177128472e+01 1.1490252315953962e+01 1.4686364674269687e+01 0 0 0
750 58 725 -1.0000000000000001e-01 1.5979538907758133e+01 7.9181881352563597e+00 1.2675268682345038e+01 1 0 1
547 43 723 2.0999999999999999e-01 1.3435143112152243e+01 4.6475523034313477e+00 1.7038923851278344e+01 0 0 0
624 48 728 5.9999999999999998e-02 2.2456817475093406e+01 1.0178394750467314e+01 2.3602199399362458e+01 1 0 -1
752 58 728 5.9999999999999998e-02 1.6899251542759306e+01 8.4738362511437924e+00 1.2917818718405046e+01 1 0 1
1085 84 726 2.9999999999999999e-02 2.0236380629059180e+01 9.3312642255168416e+00 2.4449638923312765e+01 0 1 0
557 43 728 5.9999999999999998e-02 1.2719963362218827e+01 1.9999926360753921e+00 1.7081878954276203e+01 0 0 0
1123 87 722 -4.5000000000000001e-01 1.9789852001295248e+01 1.1665348669021338e+01 1.6438598250038993e+01 0 0 0
460 36 722 -4.5000000000000001e-01 2.4386432004624666e+01 3.2950946556965405e-01 1.2720687816292997e+01 0 1 -1
192 15 721 -5.0000000000000000e-01 2.4281915666042426e+01 8.3568413844010507e+00 2.2046020759967117e+01 -1 0 0
619 48 722 -4.5000000000000001e-01 2.0255559284092627e+01 1.1442279422755403e+01 2.2856924606529997e+01 1 0 -1
328 26 727 2.9999999999999999e-02 1.2550077923451557e+01 1.2023128414881736e+01 1.6073703107594163e+01 -1 -1 0
554 43 722 -4.5000000000000001e-01 1.2453685680160167e+01 4.0270239230818712e+00 1.5115838787748269e+01 0 0 0
63 5 728 5.9999999999999998e-02 2.4343507371720769e+01 8.5581319340477862e+00 1.5725319213091073e+01 0 -1 0
219 17 728 5.9999999999999998e-02 2.4288123843680545e+01 1.3349412887928794e-02 1.7506671867806805e+01 0 1 0
1045 81 722 -4.5000000000000001e-01 2.1356143511959740e+01 1.6512033922054896e+00 2.3923611997849630e+01 0 2 -1
942 73 726 2.9999999999999999e-02 1.8746714192667795e+01 7.2489981152247225e+00 1.2227478714655254e+01 0 0 -1
1079 83 728 5.9999999999999998e-02 1.8066586157472074e+01 2.1053908854499839e+00 1.3255764369565320e+01 0 0 0
1044 81 721 8.5999999999999999e-01 2.0501960860161212e+01 2.3604229512130530e+00 2.4623040409746356e+01 0 2 -1
60 5 722 -4.5000000000000001e-01 2.3635496953463051e+01 9.1516259941679063e+00 1.3146047911582787e+01 0 -1 0
56 5 721 8.5999999999999999e-01 2.3827862438928754e+01 1.0074218428732273e+01 1.2119024920076470e+01 0 -1 0
1086 84 726 2.9999999999999999e-02 1.8429260244082524e+01 9.2797763551159509e+00 2.4624562325290082e+01 0 1 0
229 18 722 -4.5000000000000001e-01 1.6863386614439932e+01 1.6250399051702964e+01 6.3600659361511509e+00 0 0 0
587 46 724 1.6000000000000000e-01 1.3706658516149519e+01 1.7310192833486830e+01 1.1134928579951019e-01 -1 0 1
365 29 723 2.0999999999999999e-01 2.4460886176611808e+01 2.3824825052582817e+01 6.0422405812590672e+00 0 0 0
379 30 724 1.6000000000000000e-01 2.3008867113082715e+01 1.2608973298827985e+01 5.9331137192072667e+00 -1 1 1
696 54 726 2.9999999999999999e-02 1.6652738799886286e+01 1.9527755421791483e+01 4.5733418969916889e-01 0 -1 1
305 24 726 2.9999999999999999e-02 1.8067917243187093e+01 2.0829088515402020e+01 8.1175629715541593e+00 -1 -1 1
1065 82 728 5.9999999999999998e-02 1.9886945323560038e+01 1.2735262576771671e+01 7.0016902346359213e+00 -1 0 0
446 35 721 8.5999999999999999e-01 2.3578991686018053e+01 1.5722802638972102e+01 8.9347236105411234e+00 0 0 -1
325 25 728 5.9999999999999998e-02 1.8416662609164682e+01 1.5300750228901308e+01 1.2009492775074476e+01 -1 0 0
875 68 721 8.5999999999999999e-01 2.1629028304068747e+01 2.2092635371074117e+01 1.0567785763600742e+01 -1 0 0
880 68 725 -1.0000000000000001e-01 2.1011964767988406e+01 1.9139066695666223e+01 8.8266606403734507e+00 -1 0 0
253 20 726 2.9999999999999999e-02 1.7439612702289686e+01 1.4690753484915380e+01 2.0801755296271542e+00 -1 0 0
882 68 728 5.9999999999999998e-02 2.1703603558629329e+01 1.8406158973028660e+01 8.4682819536336460e+00 -1 0 0
865 67 726 2.9999999999999999e-02 1.3428465632528656e+01 1.9711721508168850e+01 2.5018394946915632e+00 0 -1 0
700 54 728 5.9999999999999998e-02 1.8182985641025613e+01 2.1747073042421789e+01 2.7408181117730193e+00 0 -1 1
610 47 728 5.9999999999999998e-02 2.1738074687916463e+01 1.8612539384601298e+01 6.9580396907350772e-01 -1 -1 0
443 35 723 2.0999999999999999e-01 2.3059228303199966e+01 1.4312006106271699e+01 1.0800324471876795e+01 0 0 -1
957 74 722 -4.5000000000000001e-01 2.1369743184441823e+01 2.3160969777893357e+01 5.3458227269618563e-01 0 1 0
928 72 722 -4.5000000000000001e-01 2.3452252929850015e+01 1.5938864297151314e+01 1.5349828793473466e+00 0 0 1
950 74 723 2.0999999999999999e-01 2.1120198854916254e+01 2.2848049836240023e+01 2.8256242985680520e+00 0 1 0
227 18 726 2.9999999999999999e-02 1.5470228075159552e+01 1.5345430014972118e+01 8.7572996113018391e+00 0 0 0
233 18 728 5.9999999999999998e-02 1.4702752848972152e+01 1.4558458913213927e+01 6.5077082676963656e+00 0 0 0
954 74 722 -4.5000000000000001e-01 1.9997736949801808e+01 2.3432460379119597e+01 2.1616046046821635e+00 0 1 0
690 54 723 2.0999999999999999e-01 1.7002944110351418e+01 1.9592200600691683e+01 1.5059846313459544e+00 0 -1 1
701 54 728 5.9999999999999998e-02 1.6846471799401936e+01 2.2341672794258059e+01 3.7160203545134589e+00 0 -1 1
666 52 727 2.9999999999999999e-02 1.2265458768531197e+01 1.3295331745064484e+01 9.9933419534645669e+00 0 0 1
694 54 722 -4.5000000000000001e-01 1.6768871697259222e+01 1.8341488667644207e+01 2.1334903017063862e+00 0 -1 1
303 24 721 8.5999999999999999e-01 1.5773308890693080e+01 2.0452687097504395e+01 6.5066182081830357e+00 -1 -1 1
955 74 726 2.9999999999999999e-02 2.1367626706779884e+01 2.3411489175821046e+01 3.6983467629872075e+00 0 1 0
702 54 728 5.9999999999999998e-02 1.6684322950928976e+01 2.2540971705319457e+01 1.9482121761121609e+00 0 -1 1
450 35 722 -4.5000000000000001e-01 2.3503382887908739e+01 1.6453084294695799e+01 1.0104989651400654e+01 0 0 -1
961 74 728 5.9999999999999998e-02 2.3508070500373041e+01 2.4418013251693210e+01 2.9341400844564625e+00 0 1 0
602 47 721 8.5999999999999999e-01 2.0543367406217989e+01 1.9281652314181301e+01 4.7771281776933368e+00 -1 -1 0
234 18 728 5.9999999999999998e-02 1.4565432382082992e+01 1.5501802821392547e+01 5.1575360713912968e+00 0 0 0
341 27 727 2.9999999999999999e-02 1.3028034247226850e+01 2.4370093298175625e+01 4.7411122982651666e+00 0 -1 1
818 63 728 5.9999999999999998e-02 1.4257085473275920e+01 1.3149542679269276e+01 2.7148531937745530e+00 -1 0 0
1024 79 721 -5.0000000000000000e-01 1.5033731838775335e+01 1.2839678456002659e+01 8.7869838599627084e+00 0 0 0
222 18 723 2.0999999999999999e-01 1.5823018194565917e+01 1.6298685320015167e+01 8.4224301231807015e+00 0 0 0
1056 82 727 2.9999999999999999e-02 2.0693229462197138e+01 1.2451785688715717e+01 9.4417602111991457e+00 -1 0 0
250 20 727 2.9999999999999999e-02 1.9797359628550684e+01 1.4363040331999938e+01 3.3643754417062812e+00 -1 0 0
224 18 727 2.9999999999999999e-02 1.5363827586527941e+01 1.7578667345499461e+01 6.6074015654083187e+00 0 0 0
933 72 721 -5.0000000000000000e-01 2.1741496854023115e+01 1.5301157493704180e+01 1.2704716900410860e+00 0 0 1
226 18 722 -4.5000000000000001e-01 1.7195234102605717e+01 1.6354837230314743e+01 8.5543352741434298e+00 0 0 0
403 31 728 5.9999999999999998e-02 1.5058521573263103e+01 1.9811440424005504e+01 1.0901291700213823e+01 0 0 1
260 20 728 5.9999999999999998e-02 1.9125470845967527e+01 1.3100369817679280e+01 1.2263738142693505e+00 -1 0 0
350 27 728 5.9999999999999998e-02 1.4573913870677382e+01 2.2536103912556698e+01 3.4495228078713098e+00 0 -1 1
588 46 727 2.9999999999999999e-02 1.3934526790855474e+01 1.8039521106815627e+01 8.8039718583827775e-01 -1 0 1
228 18 726 2.9999999999999999e-02 1.5321077523536092e+01 1.6981363789089059e+01 9.0050419055486177e+00 0 0 0
953 74 721 8.5999999999999999e-01 2.0136420238198109e+01 2.3641593368485779e+01 7.9261329065616393e-01 0 1 0
608 47 721 -5.0000000000000000e-01 2.1640582617638454e+01 2.0231981737577335e+01 5.3372183355413059e+00 -1 -1 0
693 54 721 8.5999999999999999e-01 1.6678288530956106e+01 1.8379805256171323e+01 3.4556304086290295e+00 0 -1 1
366 29 724 1.6000000000000000e-01 2.4606852603817906e+01 2.3790907815379882e+01 7.4899944235076799e+00 0 0 0
600 47 724 1.6000000000000000e-01 2.0620289259286380e+01 1.8446491700806845e+01 2.6209669569510905e+00 -1 -1 0
223 18 724 1.6000000000000000e-01 1.5587299377351007e+01 1.6528436721978892e+01 6.9102601929562084e+00 0 0 0
863 67 722 -4.5000000000000001e-01 1.2666664353511768e+01 2.0607947899226247e+01 4.2605205339140042e+00 0 -1 0
399 31 725 -1.0000000000000001e-01 1.6050376170424595e+01 2.0108105232521631e+01 1.0627575702243888e+01 0 0 1
367 29 727 2.9999999999999999e-02 2.3838297412992951e+01 2.3120778312182033e+01 7.9251969397844109e+00 0 0 0
878 68 726 2.9999999999999999e-02 2.3686312054722194e+01 1.9743412239709798e+01 1.0265941210012134e+01 -1 0 0
815 63 725 -1.0000000000000001e-01 1.3975065357419258e+01 1.2296305359734504e+01 3.3087797204279474e+00 -1 0 0
398 31 722 -4.5000000000000001e-01 1.7475699141190649e+01 2.2094956396178446e+01 1.0439634766141847e+01 0 0 1
877 68 726 2.9999999999999999e-02 2.3125154036498433e+01 2.0351453169083420e+01 8.7084741031461359e+00 -1 0 0
606 47 722 -4.5000000000000001e-01 2.0111776099598849e+01 1.9387853614758768e+01 3.5125866029009472e+00 -1 -1 0
874 68 727 2.9999999999999999e-02 2.1760964912338878e+01 1.9093378054824719e+01 1.0841474627346054e+01 -1 0 0
230 18 725 -1.0000000000000001e-01 1.4546497934792718e+01 1.5548105044521446e+01 6.2817656038664156e+00 0 0 0
324 25 728 5.9999999999999998e-02 1.7119874555695201e+01 1.4707606696379374e+01 1.1044240859844331e+01 -1 0 0
883 68 728 5.9999999999999998e-02 2.0786586336214533e+01 1.9765199711106924e+01 7.9630249435045988e+00 -1 0 0
956 74 726 2.9999999999999999e-02 2.1046513797107838e+01 2.1843509193644010e+01 3.0959357677375783e+00 0 1 0
931 72 722 -4.5000000000000001e-01 2.4251182991732005e+01 1.4164374768851978e+01 7.0744264042635818e-01 0 0 1
249 20 724 1.6000000000000000e-01 1.8887186428706620e+01 1.3784670134366463e+01 3.3803112501933734e+00 -1 0 0
321 25 725 -1.0000000000000001e-01 1.7395703207722338e+01 1.5390619380496453e+01 1.1848001299227029e+01 -1 0 0
301 24 724 1.6000000000000000e-01 1.7567769509483451e+01 2.1933422728061629e+01 6.1980616136291102e+00 -1 -1 1
692 54 727 2.9999999999999999e-02 1.5341247673841822e+01 2.0600331012851449e+01 2.2633918506057746e+00 0 -1 1
604 47 726 2.9999999999999999e-02 2.2579491691354992e+01 1.8051802761514814e+01 2.8816894435205382e+00 -1 -1 0
611 47 728 5.9999999999999998e-02 2.1888347975806074e+01 1.9962694441393062e+01 1.7085470254096182e+00 -1 -1 0
347 27 725 -1.0000000000000001e-01 1.4147537766772173e+01 2.3473368663404607e+01 3.0491180879970674e+00 0 -1 1
599 47 723 2.0999999999999999e-01 2.1685837662107868e+01 1.7756311286373801e+01 3.3642440583841657e+00 -1 -1 0
451 35 725 -1.0000000000000001e-01 2.1426109914534408e+01 1.6124910634850444e+01 1.1351042181595268e+01 0 0 -1
308 24 725 -1.0000000000000001e-01 1.7729556382691342e+01 2.3273567228160609e+01 6.9575011105201900e+00 -1 -1 1
591 46 726 2.9999999999999999e-02 1.4932411272555893e+01 1.5521656542329415e+01 -1.3260449368146093e-01 -1 0 1
601 47 727 2.9999999999999999e-02 1.9726540351577945e+01 1.7814619315329630e+01 2.4522479407825450e+00 -1 -1 0
598 46 728 5.9999999999999998e-02 1.2971307832767984e+01 1.5301597251337586e+01 6.4111289856777831e-01 -1 0 1
597 46 728 5.9999999999999998e-02 1.2438275585479769e+01 1.6516930013080838e+01 1.7180362537417742e+00 -1 0 1
1152 89 722 -4.5000000000000001e-01 1.5803057717586690e+01 2.4629023206090956e+01 -4.2096535148456027e-01 0 -1 0
884 68 728 5.9999999999999998e-02 1.9984894719213226e+01 1.8796533267225783e+01 9.1014064297517390e+00 -1 0 0
232 18 728 5.9999999999999998e-02 1.3579427950684376e+01 1.5738797751348498e+01 6.7204655331958483e+00 0 0 0
300 24 723 2.0999999999999999e-01 1.8029923995674345e+01 2.0722706478737372e+01 7.0129582020410597e+00 -1 -1 1
397 31 726 2.9999999999999999e-02 1.4753205727664950e+01 2.2934905702970191e+01 1.1599461427688482e+01 0 0 1
974 75 728 5.9999999999999998e-02 1.4925726340139226e+01 1.3634405381481747e+01 -1.7320106736444829e-01 0 0 1
876 68 722 -4.5000000000000001e-01 2.2871626288150974e+01 2.1612808421421342e+01 1.0343730884964360e+01 -1 0 0
393 31 727 2.9999999999999999e-02 1.5630948143281943e+01 2.2129377280766654e+01 9.6671089560393249e+00 0 0 1
381 30 721 8.5999999999999999e-01 2.2407683128786637e+01 1.4713512794042066e+01 5.5376089897053928e+00 -1 1 1
256 20 725 -1.0000000000000001e-01 1.8928400075126415e+01 1.2673586002684358e+01 2.2378482720130370e+00 -1 0 0
392 31 724 1.6000000000000000e-01 1.6104271128107396e+01 2.1627397240963262e+01 1.0486110979982163e+01 0 0 1
951 74 724 1.6000000000000000e-01 2.2158487274324866e+01 2.2964079109271999e+01 1.7087158121611379e+00 0 1 0
225 18 721 8.5999999999999999e-01 1.7832563313557145e+01 1.6312812547020997e+01 7.4040628565888573e+00 0 0 0
302 24 727 2.9999999999999999e-02 1.7876817022823442e+01 2.2094520735390638e+01 5.1955933185923113e+00 -1 -1 1
697 54 722 -4.5000000000000001e-01 1.6444741913844311e+01 1.9665054757529354e+01 3.6215937927169879e+00 0 -1 1
311 24 728 5.9999999999999998e-02 1.8539489071357490e+01 2.3187838809131833e+01 7.6410337376914637e+00 -1 -1 1
312 24 728 5.9999999999999998e-02 1.6798184934238950e+01 2.3455094614758650e+01 7.4974829873990272e+00 -1 -1 1
691 54 724 1.6000000000000000e-01 1.6387263990675208e+01 2.0549380759986832e+01 2.4775787552186705e+00 0 -1 1
251 20 721 8.5999999999999999e-01 1.7252555928983455e+01 1.3514290836375286e+01 4.9240883843626122e+00 -1 0 0
387 30 721 -5.0000000000000000e-01 2.1382688761353865e+01 1.5140302881173714e+01 6.5164161602865249e+00 -1 1 1
872 68 723 2.0999999999999999e-01 2.2939746546739975e+01 2.0316844147959934e+01 9.7770771542749149e+00 -1 0 0
603 47 722 -4.5000000000000001e-01 2.1615709093835655e+01 1.8453228202546981e+01 4.6574031198486212e+00 -1 -1 0
448 35 726 2.9999999999999999e-02 2.2100783234725263e+01 1.3822939113774392e+01 1.0805772665826265e+01 0 0 -1
586 46 723 2.0999999999999999e-01 1.4966876573283246e+01 1.6632168164122774e+01 -3.2605350148314127e-01 -1 0 1
363 28 728 5.9999999999999998e-02 1.2646112448436039e+01 1.2782545099645379e+01 6.3116389174712033e+00 -1 0 1
231 18 721 -5.0000000000000000e-01 1.8559474742838916e+01 1.6698529301055743e+01 6.1391015918241463e+00 0 0 0
709 55 726 2.9999999999999999e-02 2.3850214980649010e+01 1.8997475268263791e+01 3.0524954592764469e-01 0 -2 0
378 30 723 2.0999999999999999e-01 2.4094775466232150e+01 1.3313816471988170e+01 5.1897194179586084e+00 -1 1 1
310 24 728 5.9999999999999998e-02 1.7895208175150291e+01 2.4075602016959010e+01 6.2496057798910556e+00 -1 -1 1
248 20 723 2.0999999999999999e-01 1.7752490432754094e+01 1.4750689027035335e+01 3.0871386924097615e+00 -1 0 0
605 47 726 2.9999999999999999e-02 2.1731271225526811e+01 1.6640984718171012e+01 3.4466231723175911e+00 -1 -1 0
927 72 721 8.5999999999999999e-01 2.3126519118710863e+01 1.4907995805459551e+01 7.8144728685507348e-01 0 0 1
873 68 724 1.6000000000000000e-01 2.1598167587057901e+01 1.9783889820452082e+01 1.0045407768424720e+01 -1 0 0
592 46 726 2.9999999999999999e-02 1.5886435262458104e+01 1.7109456508662340e+01 -5.0530182007839701e-02 -1 0 1
1258 97 721 -5.0000000000000000e-01 1.2686198810216279e+01 1.7709239718856040e+01 1.0958549872027280e+01 0 -1 -1
859 67 723 2.0999999999999999e-01 1.2492720466332713e+01 1.9914310945086761e+01 3.0828239990441575e+00 0 -1 0
453 35 728 5.9999999999999998e-02 2.0967118268789164e+01 1.5971769654755111e+01 1.0407292356180577e+01 0 0 -1
402 31 728 5.9999999999999998e-02 1.6381387478079379e+01 1.9532443056993166e+01 9.7716258175230912e+00 0 0 1
952 74 727 2.9999999999999999e-02 2.2759606252753304e+01 2.2057301435781909e+01 1.6155380375836563e+00 0 1 0
385 30 722 -4.5000000000000001e-01 2.2104415832448588e+01 1.3669363507894543e+01 6.2763274742084514e+00 -1 1 1
255 20 722 -4.5000000000000001e-01 1.8529240284403045e+01 1.3336319806307692e+01 4.6323631197102575e+00 -1 0 0
252 20 722 -4.5000000000000001e-01 1.6792028341131854e+01 1.4233333417380374e+01 3.8969677897980231e+00 -1 0 0
455 35 728 5.9999999999999998e-02 2.0904828227687027e+01 1.5515026918266729e+01 1.2092190771922375e+01 0 0 -1
391 31 723 2.0999999999999999e-01 1.5621564914285303e+01 2.2355375173616061e+01 1.1690599884624538e+01 0 0 1
698 54 725 -1.0000000000000001e-01 1.7029130777103056e+01 2.1874846965057749e+01 2.7376862863847995e+00 0 -1 1
879 68 722 -4.5000000000000001e-01 2.0901069269147573e+01 2.0983404378951370e+01 1.0389000536590439e+01 -1 0 0
695 54 726 2.9999999999999999e-02 1.8073016084950130e+01 1.9784918947102618e+01 1.4232905526013100e+00 0 -1 1
254 20 726 2.9999999999999999e-02 1.8066328309617035e+01 1.5768380481972635e+01 3.3336913414560798e+00 -1 0 0
309 24 721 -5.0000000000000000e-01 1.4821141872916780e+01 2.0129704793402958e+01 7.5661000634574513e+00 -1 -1 1
394 31 721 8.5999999999999999e-01 1.7937297494911562e+01 2.2769926137680443e+01 1.1486191232110334e+01 0 0 1
444 35 724 1.6000000000000000e-01 2.2945109339455438e+01 1.5793614941599282e+01 1.1233811103743436e+01 0 0 -1
304 24 722 -4.5000000000000001e-01 1.6947288445375094e+01 1.9882080292615093e+01 6.8943316062237541e+00 -1 -1 1
307 24 722 -4.5000000000000001e-01 1.6185941634838048e+01 2.1703812647839399e+01 6.1744275160237363e+00 -1 -1 1
607 47 725 -1.0000000000000001e-01 2.1158646199174733e+01 1.9247891359998000e+01 1.4216895409946202e+00 -1 -1 0
382 30 722 -4.5000000000000001e-01 2.3422410441197162e+01 1.4447198262258677e+01 4.7565792737516936e+00 -1 1 1
349 27 728 5.9999999999999998e-02 1.3195062082119822e+01 2.3323027649567138e+01 2.4928446367839694e+00 0 -1 1
447 35 722 -4.5000000000000001e-01 2.3461370572101529e+01 1.4417926059956606e+01 9.4497365212495676e+00 0 0 -1
380 30 727 2.9999999999999999e-02 2.3457072067862804e+01 1.2409866328275461e+01 6.8160757583020510e+00 -1 1 1
664 52 723 2.0999999999999999e-01 1.2318989187426441e+01 1.2230791686617282e+01 1.1996757345089037e+01 0 0 1
306 24 726 2.9999999999999999e-02 1.8833774762605962e+01 2.0111789777166948e+01 6.7196635931208597e+00 -1 -1 1
351 27 728 5.9999999999999998e-02 1.4896169184481410e+01 2.3931776691346982e+01 2.3657727911734932e+00 0 -1 1
699 54 721 -5.0000000000000000e-01 1.5295532860272642e+01 1.7766381636150264e+01 3.3760788204273982e+00 0 -1 1
400 31 721 -5.0000000000000000e-01 1.8431437673332812e+01 2.3319394729919232e+01 1.0214733527724649e+01 0 0 1
594 46 725 -1.0000000000000001e-01 1.2647962264500965e+01 1.6339266713979434e+01 6.2712069262249270e-01 -1 0 1
609 47 728 5.9999999999999998e-02 2.0423200527352932e+01 1.9861351465372827e+01 9.1550934863103373e-01 -1 -1 0
371 29 726 2.9999999999999999e-02 2.3658665256064843e+01 2.3199771350754403e+01 5.7247594869660130e+00 0 0 0
959 74 721 -5.0000000000000000e-01 1.9258161158197481e+01 2.2485192031002747e+01 4.4621983815362354e-01 0 1 0
1060 82 726 2.9999999999999999e-02 1.8896248900551253e+01 1.3841350842046642e+01 9.5424873529403182e+00 -1 0 0
323 25 728 5.9999999999999998e-02 1.7366863222701372e+01 1.6378099079425567e+01 1.1453216760837829e+01 -1 0 0
881 68 721 -5.0000000000000000e-01 2.2218466823885755e+01 2.2878518536286030e+01 1.1745834360714460e+01 -1 0 0
1058 82 722 -4.5000000000000001e-01 1.8374168267959600e+01 1.2302054139765232e+01 1.0653810978817527e+01 -1 0 0
958 74 725 -1.0000000000000001e-01 2.3186295367585604e+01 2.4203877718904813e+01 1.8834530214931471e+00 0 1 0
270 21 721 -5.0000000000000000e-01 2.4395290656735238e+01 2.0768443403377226e+01 3.2315339461209409e+00 0 0 0
1252 97 721 8.5999999999999999e-01 1.2249366441971430e+01 1.8470689814067306e+01 9.7676216155725548e+00 0 -1 -1
344 27 726 2.9999999999999999e-02 1.5952972871204061e+01 2.4289298264660417e+01 4.6984634580876534e+00 0 -1 1
861 67 727 2.9999999999999999e-02 1.2557321604679538e+01 1.7845607315372803e+01 3.6409177117630773e+00 0 -1 0
1054 82 723 2.0999999999999999e-01 1.8697814215164868e+01 1.2817687159630331e+01 9.4394779186069773e+00 -1 0 0
819 63 728 5.9999999999999998e-02 1.4218632397208353e+01 1.2628526163844615e+01 4.3505648990629249e+00 -1 0 0
454 35 728 5.9999999999999998e-02 2.1274801477662542e+01 1.7203094501457834e+01 1.1525068374339410e+01 0 0 -1
401 31 728 5.9999999999999998e-02 1.6690766199920148e+01 1.9752066453823488e+01 1.1405016335123760e+01 0 0 1
1059 82 726 2.9999999999999999e-02 1.7856941176201762e+01 1.2703802203367964e+01 8.7869239047030092e+00 -1 0 0
395 31 722 -4.5000000000000001e-01 1.6818231454375344e+01 2.3110963115810137e+01 1.1982176727160157e+01 0 0 1
973 75 728 5.9999999999999998e-02 1.6136245552832790e+01 1.2172132843704341e+01 -4.4945251107756955e-02 0 0 1
383 30 726 2.9999999999999999e-02 2.4508038021773913e+01 1.2706416266925743e+01 4.3523303408321921e+00 -1 1 1
449 35 726 2.9999999999999999e-02 2.3767834641327099e+01 1.3693695486218624e+01 1.1415603114075822e+01 0 0 -1
340 27 724 1.6000000000000000e-01 1.3904499188290471e+01 2.4510381390985714e+01 4.1561346346883310e+00 0 -1 1
258 20 728 5.9999999999999998e-02 1.8017095869601292e+01 1.2122791311345997e+01 2.2561035242777594e+00 -1 0 0
674 52 728 5.9999999999999998e-02 1.2297581746952133e+01 1.4923579219579269e+01 1.2030696900599649e+01 0 0 1
960 74 728 5.9999999999999998e-02 2.4079604218612726e+01 2.3888243296245342e+01 1.3748746671903995e+00 0 1 0
345 27 726 2.9999999999999999e-02 1.4839135095890407e+01 2.4366625370057882e+01 6.0676509187103465e+00 0 -1 1
708 55 726 2.9999999999999999e-02 2.3346537878113018e+01 2.0537393520819165e+01 -4.2227144361806879e-01 0 -2 0
243 19 725 -1.0000000000000001e-01 2.3829722060528844e+01 1.8479610912277380e+01 1.6983744148532214e+01 -1 -1 0
975 75 728 5.9999999999999998e-02 1.6237339814301794e+01 1.3342942692422808e+01 2.3817052136829567e+01 0 0 0
904 70 726 2.9999999999999999e-02 1.4007956555513122e+01 1.5314583051232583e+01 2.0119365962870916e+01 0 -1 0
910 70 728 5.9999999999999998e-02 1.6693888806264368e+01 1.4178277691088336e+01 2.1828068947617602e+01 0 -1 0
246 19 728 5.9999999999999998e-02 2.4480472386780217e+01 1.7954720847965149e+01 1.6344816942922265e+01 -1 -1 0
1186 92 727 2.9999999999999999e-02 2.1051035371689771e+01 1.3639929512956613e+01 1.8561159103251633e+01 0 -1 0
577 45 722 -4.5000000000000001e-01 2.0683385065158578e+01 2.3970469584610072e+01 1.6699218876995797e+01 0 -1 0
728 56 728 5.9999999999999998e-02 1.9472048319995857e+01 1.9892882082459856e+01 2.4296940754412599e+01 -2 0 -1
1274 98 728 5.9999999999999998e-02 1.2966025835698758e+01 2.4096001752196138e+01 1.7275029589770430e+01 0 -1 0
332 26 726 2.9999999999999999e-02 1.3029673706578464e+01 1.3456830660079772e+01 1.7844893989260385e+01 -1 -1 0
899 70 724 1.6000000000000000e-01 1.6186677350613095e+01 1.4735202813396400e+01 1.9746455049519497e+01 0 -1 0
617 48 726 2.9999999999999999e-02 2.2088040848751909e+01 1.3561893893161399e+01 2.1998439611089537e+01 1 0 -1
989 77 723 2.0999999999999999e-01 2.0815459728079105e+01 2.3154065437436579e+01 2.1648043891246012e+01 0 0 0
217 17 725 -1.0000000000000001e-01 2.4205307521562251e+01 2.4111538821024070e+01 1.7866616516729188e+01 0 0 0
716 56 723 2.0999999999999999e-01 2.0300421797151539e+01 1.7824209277608581e+01 2.2576558099869683e+01 -2 0 -1
317 25 722 -4.5000000000000001e-01 1.5744578063246475e+01 1.5858491463250378e+01 1.5104652927953394e+01 -1 0 0
319 25 726 2.9999999999999999e-02 1.7727484481568812e+01 1.5075164021396608e+01 1.4951292928253311e+01 -1 0 0
1119 87 723 2.0999999999999999e-01 1.8790335621690332e+01 1.2105527320510220e+01 1.5493862641460053e+01 0 0 0
567 44 722 -4.5000000000000001e-01 2.3877553218935432e+01 1.2925301071255259e+01 1.9205533747816588e+01 -1 0 0
1244 96 725 -1.0000000000000001e-01 1.9621130773325319e+01 1.8105901730145867e+01 1.5768429872917135e+01 0 0 -1
907 70 721 -5.0000000000000000e-01 1.7390503278158100e+01 1.7374318528878199e+01 1.8948485142371876e+01 0 -1 0
1190 92 726 2.9999999999999999e-02 1.9017705730878056e+01 1.4129499201537191e+01 1.7785632867390714e+01 0 -1 0
590 46 722 -4.5000000000000001e-01 1.4828000957615806e+01 1.6655645467682355e+01 2.3323533901908384e+01 -1 0 0
1189 92 726 2.9999999999999999e-02 1.9445823413106794e+01 1.5944545259858874e+01 1.7687183773603881e+01 0 -1 0
1238 96 727 2.9999999999999999e-02 2.0280850050355379e+01 2.0197407938306966e+01 1.5981470114850570e+01 0 0 -1
521 41 723 2.0999999999999999e-01 1.7792001385305614e+01 2.2553673107869358e+01 1.8617719792341326e+01 -1 -1 0
966 75 721 8.5999999999999999e-01 1.2990325337348388e+01 1.2897470652332943e+01 2.2093281500031104e+01 0 0 0
1247 96 728 5.9999999999999998e-02 1.9054684296747023e+01 1.7659808277661433e+01 1.5019361993963468e+01 0 0 -1
1245 96 721 -5.0000000000000000e-01 1.6124691519415808e+01 1.9839531225152783e+01 1.4639231329622850e+01 0 0 -1
237 19 727 2.9999999999999999e-02 2.2906157393619711e+01 2.0446135606688628e+01 1.7032543191965072e+01 -1 -1 0
669 52 726 2.9999999999999999e-02 1.2245025135500555e+01 1.2696370608197519e+01 1.2955985046698673e+01 0 0 1
1237 96 724 1.6000000000000000e-01 1.9415738929193807e+01 1.9661389048635620e+01 1.5559934396484064e+01 0 0 -1
992 77 721 8.5999999999999999e-01 2.2059512149294569e+01 2.2060901205421160e+01 1.9993733805464181e+01 0 0 0
1129 87 728 5.9999999999999998e-02 1.6783880024524436e+01 1.3690875703757200e+01 1.6694768595685375e+01 0 0 0
1240 96 722 -4.5000000000000001e-01 1.7878114417045776e+01 2.0446325264405786e+01 1.4124835852518466e+01 0 0 -1
1263 98 724 1.6000000000000000e-01 1.2406073314416243e+01 2.3829365912173003e+01 1.9490566217863883e+01 0 -1 0
13 1 728 5.9999999999999998e-02 1.4270052535121497e+01 1.8870880981096526e+01 1.7612453870952322e+01 2 0 0
898 70 723 2.0999999999999999e-01 1.5091186867940461e+01 1.5679935109253265e+01 1.9977450458301711e+01 0 -1 0
1239 96 721 8.5999999999999999e-01 1.7259240666673303e+01 2.0578508223973429e+01 1.5248090233153684e+01 0 0 -1
8 1 722 -4.5000000000000001e-01 1.2673572109027946e+01 2.0373149127654571e+01 1.9151291038657497e+01 2 0 0
706 55 721 8.5999999999999999e-01 2.4256412477988761e+01 1.9188324277660584e+01 2.2350784627505469e+01 0 -2 -1
2 1 724 1.6000000000000000e-01 1.2666474598848634e+01 2.0431650442378704e+01 1.7735311487946152e+01 2 0 0
396 31 726 2.9999999999999999e-02 1.5622304902546009e+01 2.1479488942013425e+01 1.2409335017579783e+01 0 0 1
900 70 727 2.9999999999999999e-02 1.5683895222722702e+01 1.3837343990124479e+01 1.9438246691543274e+01 0 -1 0
1272 98 728 5.9999999999999998e-02 1.4042399137746040e+01 2.3059173375064077e+01 1.8349747347391904e+01 0 -1 0
1192 92 725 -1.0000000000000001e-01 2.1089968226976787e+01 1.5624204042505182e+01 1.9437326667631343e+01 0 -1 0
314 25 724 1.6000000000000000e-01 1.6631911900277931e+01 1.5070278599564858e+01 1.3176698936525943e+01 -1 0 0
1185 92 724 1.6000000000000000e-01 2.1006872572151913e+01 1.4665967056495690e+01 1.8241303555830655e+01 0 -1 0
970 75 722 -4.5000000000000001e-01 1.4279697675716871e+01 1.2812717222884251e+01 2.2399350178583848e+01 0 0 0
1000 77 728 5.9999999999999998e-02 2.3945524582463761e+01 2.3318840413012410e+01 2.3049972178962776e+01 0 0 0
1298 100 728 5.9999999999999998e-02 2.4462108583843975e+01 1.3867868525311037e+01 1.3703143691177448e+01 -1 0 0
531 41 728 5.9999999999999998e-02 1.5415761465620585e+01 2.1679669624459656e+01 1.9978740866636734e+01 -1 -1 0
522 41 724 1.6000000000000000e-01 1.7552577250014657e+01 2.1779646758718954e+01 1.9990001386675097e+01 -1 -1 0
615 48 721 8.5999999999999999e-01 1.9410655020211152e+01 1.2209176518269828e+01 2.2168398674831082e+01 1 0 -1
1242 96 726 2.9999999999999999e-02 1.9884922848404230e+01 2.1071265545266826e+01 1.3951620029097617e+01 0 0 -1
247 19 728 5.9999999999999998e-02 2.2977719772022557e+01 1.7749586451741123e+01 1.6991323103211922e+01 -1 -1 0
727 56 728 5.9999999999999998e-02 1.9430240078629211e+01 2.0458794278039470e+01 2.2698163277759193e+01 -2 0 -1
972 75 721 -5.0000000000000000e-01 1.2595846197909992e+01 1.4299277236836502e+01 2.2411891906521866e+01 0 0 0
9 1 725 -1.0000000000000001e-01 1.3999056367725384e+01 1.9836394699792855e+01 1.7190030115064026e+01 2 0 0
532 41 728 5.9999999999999998e-02 1.6225112814763410e+01 2.0645992180105175e+01 2.1151840166360071e+01 -1 -1 0
993 77 722 -4.5000000000000001e-01 2.0832434605587835e+01 2.2519320857371014e+01 2.0388368819946727e+01 0 0 0
1147 89 727 2.9999999999999999e-02 1.4514008169138455e+01 2.4353528676894271e+01 2.3213283087076974e+01 0 -1 -1
908 70 728 5.9999999999999998e-02 1.7613260352736528e+01 1.5507000045236060e+01 2.1114621151181375e+01 0 -1 0
320 25 722 -4.5000000000000001e-01 1.5392594399382761e+01 1.5685971564178109e+01 1.3028579945265129e+01 -1 0 0
526 41 726 2.9999999999999999e-02 1.7128035746864523e+01 2.2121903471084977e+01 1.7788057431009143e+01 -1 -1 0
1203 93 726 2.9999999999999999e-02 1.3859910651522428e+01 2.3667384536443286e+01 1.3990367559445950e+01 0 0 0
905 70 722 -4.5000000000000001e-01 1.6965716399477348e+01 1.5434867921473048e+01 1.8784124955707121e+01 0 -1 0
707 55 722 -4.5000000000000001e-01 2.3635741827977572e+01 1.8900509910709808e+01 2.3402533820500206e+01 0 -2 -1
1197 93 723 2.0999999999999999e-01 1.2947942727303017e+01 2.3270332137806840e+01 1.3504000475827299e+01 0 0 0
1127 87 725 -1.0000000000000001e-01 1.6493439889931032e+01 1.2709084840903520e+01 1.6422897689246174e+01 0 0 0
612 48 723 2.0999999999999999e-01 2.1301999298998435e+01 1.3342126219314290e+01 2.2728241650573523e+01 1 0 -1
724 56 725 -1.0000000000000001e-01 1.8946575711713173e+01 1.9825662929623675e+01 2.3387932168694608e+01 -2 0 -1
313 25 723 2.0999999999999999e-01 1.7039722252620951e+01 1.5743054786292698e+01 1.4459516814474398e+01 -1 0 0
1262 98 723 2.0999999999999999e-01 1.3086169899460961e+01 2.3666294921959995e+01 2.0814556022677039e+01 0 -1 0
1124 87 726 2.9999999999999999e-02 1.8983033584951457e+01 1.3169002011160321e+01 1.5292328337507737e+01 0 0 0
1267 98 726 2.9999999999999999e-02 1.4140199466725536e+01 2.3811028602185168e+01 2.0767462833270436e+01 0 -1 0
906 70 725 -1.0000000000000001e-01 1.7129411146088025e+01 1.4538897002787841e+01 2.0902316189559592e+01 0 -1 0
1241 96 726 2.9999999999999999e-02 1.9619154021691454e+01 1.9395540478328527e+01 1.3512021753971931e+01 0 0 -1
719 56 721 8.5999999999999999e-01 1.9128469825176182e+01 1.6217608604065752e+01 2.3526540900693480e+01 -2 0 -1
616 48 722 -4.5000000000000001e-01 2.0008206667200149e+01 1.3349698100293303e+01 2.2278670568692032e+01 1 0 -1
523 41 727 2.9999999999999999e-02 1.8388167870555133e+01 2.1089942971798017e+01 2.0178409580389577e+01 -1 -1 0
528 41 722 -4.5000000000000001e-01 1.7523550003816361e+01 2.2907402552138500e+01 2.0887742425118859e+01 -1 -1 0
1268 98 726 2.9999999999999999e-02 1.2995513035977385e+01 2.2677817936348539e+01 2.1337777426049083e+01 0 -1 0
1195 92 728 5.9999999999999998e-02 2.0741239740227268e+01 1.6682405422275714e+01 1.9301645224521177e+01 0 -1 0
725 56 721 -5.0000000000000000e-01 1.8264587386954229e+01 1.5525984296506515e+01 2.4511954824409219e+01 -2 0 -1
593 46 722 -4.5000000000000001e-01 1.3291819010226984e+01 1.7936378629788848e+01 2.3983548768732568e+01 -1 0 0
1248 96 728 5.9999999999999998e-02 1.9425889589872810e+01 1.7765414985100463e+01 1.6797052989797049e+01 0 0 -1
1131 87 728 5.9999999999999998e-02 1.6287593226792644e+01 1.2889500812592166e+01 1.5349988671245708e+01 0 0 0
967 75 722 -4.5000000000000001e-01 1.2445893501232790e+01 1.2369576016936589e+01 2.3259063109205773e+01 0 0 0
1246 96 728 5.9999999999999998e-02 2.0662713184715969e+01 1.7856366113465540e+01 1.5576268429662633e+01 0 0 -1
1199 93 727 2.9999999999999999e-02 1.3724616039840910e+01 2.1648585057466839e+01 1.4757691920617747e+01 0 0 0
316 25 721 8.5999999999999999e-01 1.4805763630029592e+01 1.6087639613971483e+01 1.4198770164489281e+01 -1 0 0
1270 98 725 -1.0000000000000001e-01 1.3443202798835161e+01 2.4005878575116505e+01 1.8323096793321959e+01 0 -1 0
1207 93 728 5.9999999999999998e-02 1.2219335159170274e+01 1.9979585512406977e+01 1.3678140051242263e+01 0 0 0
712 55 721 -5.0000000000000000e-01 2.4003979421508223e+01 1.7731339690574764e+01 2.2394529477261070e+01 0 -2 -1
718 56 727 2.9999999999999999e-02 1.8235083645911455e+01 1.8184339481427692e+01 2.2046127401098484e+01 -2 0 -1
1076 83 721 -5.0000000000000000e-01 1.6525878350086504e+01 2.3818597524962243e+01 1.5266207400807586e+01 0 -1 0
12 1 728 5.9999999999999998e-02 1.3926289360562951e+01 1.9644886018312221e+01 1.6102115833521829e+01 2 0 0
723 56 722 -4.5000000000000001e-01 1.8564161287156740e+01 1.7378943972133229e+01 2.3765692852571622e+01 -2 0 -1
1198 93 724 1.6000000000000000e-01 1.2822589626812208e+01 2.1993201235824827e+01 1.4249378861017840e+01 0 0 0
618 48 726 2.9999999999999999e-02 2.1458836041984345e+01 1.4226656236879636e+01 2.3425999221508548e+01 1 0 -1
1194 92 728 5.9999999999999998e-02 2.0480115468210375e+01 1.5153701143956573e+01 2.0308871172601975e+01 0 -1 0
595 46 721 -5.0000000000000000e-01 1.4507055901170853e+01 1.8806945476415251e+01 2.2263588914697962e+01 -1 0 0
576 45 721 8.5999999999999999e-01 2.0493186185658331e+01 2.4054879973842333e+01 1.5393360107112370e+01 0 -1 0
994 77 726 2.9999999999999999e-02 2.0847037852339124e+01 2.4178033442714096e+01 2.1579419647612045e+01 0 0 0
242 19 722 -4.5000000000000001e-01 2.3003816956934099e+01 1.9744127739036664e+01 1.4989073166628353e+01 -1 -1 0
315 25 727 2.9999999999999999e-02 1.6473738301896713e+01 1.3975246995366406e+01 1.3371368602740789e+01 -1 0 0
726 56 728 5.9999999999999998e-02 1.7952143755658028e+01 2.0122077417579412e+01 2.3556975195295230e+01 -2 0 -1
720 56 722 -4.5000000000000001e-01 2.0061737739434648e+01 1.6500648056238418e+01 2.2698736353931732e+01 -2 0 -1
1187 92 721 8.5999999999999999e-01 2.1478231089156353e+01 1.5038454603618128e+01 1.6009011822334728e+01 0 -1 0
1193 92 721 -5.0000000000000000e-01 2.0791610123800684e+01 1.5315029989633315e+01 1.4714369421115192e+01 0 -1 0
1236 96 723 2.0999999999999999e-01 1.9257211024648399e+01 2.0216179501232638e+01 1.4149881290497206e+01 0 0 -1
996 77 722 -4.5000000000000001e-01 2.2712433694988118e+01 2.2045278272061203e+01 2.1133873370129102e+01 0 0 0
220 17 728 5.9999999999999998e-02 2.3434321302791531e+01 2.4284332452910355e+01 1.8623617526939974e+01 0 0 0
11 1 728 5.9999999999999998e-02 1.4805974574621292e+01 2.0476874490464930e+01 1.7351740552003967e+01 2 0 0
529 41 725 -1.0000000000000001e-01 1.6248985287000725e+01 2.1006296665165522e+01 2.0152234812353289e+01 -1 -1 0
997 77 725 -1.0000000000000001e-01 2.2959056278985255e+01 2.3690188986223227e+01 2.2846587342082941e+01 0 0 0
524 41 721 8.5999999999999999e-01 1.7569310789988258e+01 2.4135082480059431e+01 2.0297360405334004e+01 -1 -1 0
1188 92 722 -4.5000000000000001e-01 2.0226619684881172e+01 1.4758271476926698e+01 1.6158622486457364e+01 0 -1 0
533 41 728 5.9999999999999998e-02 1.6166451653579912e+01 2.0104724051921721e+01 1.9623542997218085e+01 -1 -1 0
909 70 728 5.9999999999999998e-02 1.7915040616796134e+01 1.3846597240116298e+01 2.0585955756013878e+01 0 -1 0
527 41 726 2.9999999999999999e-02 1.8828451846595090e+01 2.2459991483087599e+01 1.8336979389954156e+01 -1 -1 0
717 56 724 1.6000000000000000e-01 1.8887014780513272e+01 1.8402849964377246e+01 2.2884610007360056e+01 -2 0 -1
902 70 722 -4.5000000000000001e-01 1.5227977604255598e+01 1.6638078809468716e+01 1.8938751815928441e+01 0 -1 0
1208 93 728 5.9999999999999998e-02 1.2744746289980489e+01 2.1080574112813188e+01 1.2282250137272099e+01 0 0 0
995 77 726 2.9999999999999999e-02 1.9929939366845712e+01 2.2919992630408146e+01 2.2315280080945435e+01 0 0 0
238 19 721 8.5999999999999999e-01 2.3678327435734175e+01 2.0268559676518699e+01 1.3958018493950478e+01 -1 -1 0
525 41 722 -4.5000000000000001e-01 1.7700234068708934e+01 2.3976006698609694e+01 1.9015848221359033e+01 -1 -1 0
998 77 721 -5.0000000000000000e-01 2.1296320018316695e+01 2.0779806450424374e+01 1.9844453946109684e+01 0 0 0
901 70 721 8.5999999999999999e-01 1.6397832545446821e+01 1.6483280785660398e+01 1.8218695637630926e+01 0 -1 0
1243 96 722 -4.5000000000000001e-01 1.8176800708958400e+01 2.0131279785163805e+01 1.6103200319724362e+01 0 0 -1
990 77 724 1.6000000000000000e-01 2.2095129900065505e+01 2.2518615523143517e+01 2.2285439847957285e+01 0 0 0
322 25 721 -5.0000000000000000e-01 1.4339005742245368e+01 1.4944211761044370e+01 1.5197383520782065e+01 -1 0 0
999 77 728 5.9999999999999998e-02 2.3006702342806296e+01 2.4560771521805869e+01 2.2170770845089834e+01 0 0 0
1001 77 728 5.9999999999999998e-02 2.2546797855777175e+01 2.4104816862528445e+01 2.3821022336566998e+01 0 0 0
236 19 724 1.6000000000000000e-01 2.3544023510910488e+01 1.9874946042157511e+01 1.6279730797495255e+01 -1 -1 0
1191 92 722 -4.5000000000000001e-01 2.1938485563481915e+01 1.5051177854157416e+01 1.7177164489658743e+01 0 -1 0
1202 93 726 2.9999999999999999e-02 1.3090929344725117e+01 2.3229169751166403e+01 1.2439214088652792e+01 0 0 0
245 19 728 5.9999999999999998e-02 2.4303248222929195e+01 1.8493244996723902e+01 1.7920315850785094e+01 -1 -1 0
903 70 726 2.9999999999999999e-02 1.5337309762627907e+01 1.6158449136832118e+01 2.0886345864896409e+01 0 -1 0
1196 92 728 5.9999999999999998e-02 2.2118651733301071e+01 1.5685093362152330e+01 1.9725877562984831e+01 0 -1 0
991 77 727 2.9999999999999999e-02 2.1937195986502136e+01 2.1792478563153125e+01 2.3083420521801511e+01 0 0 0
1205 93 725 -1.0000000000000001e-01 1.2201813223624409e+01 2.0969685200612126e+01 1.3265526641704128e+01 0 0 0
3 1 727 2.9999999999999999e-02 1.2549923148466098e+01 2.1472051461649293e+01 1.7464046995943178e+01 2 0 0
582 45 721 -5.0000000000000000e-01 2.1579389787429207e+01 2.2992593563246153e+01 1.5586134489921614e+01 0 -1 0
722 56 726 2.9999999999999999e-02 2.0793747640717150e+01 1.8127805633499470e+01 2.1635623741512251e+01 -2 0 -1
1184 92 723 2.0999999999999999e-01 1.9756907339192541e+01 1.4903572198681003e+01 1.7509774557346262e+01 0 -1 0
589 46 721 8.5999999999999999e-01 1.3969679190045138e+01 1.7523475297556722e+01 2.2871832136637487e+01 -1 0 0
721 56 726 2.9999999999999999e-02 2.0929627067273930e+01 1.8163074375148305e+01 2.3444789168389505e+01 -2 0 -1
318 25 726 2.9999999999999999e-02 1.7451127813511704e+01 1.6748607400982188e+01 1.4267128712544205e+01 -1 0 0
562 44 727 2.9999999999999999e-02 2.3933188685268856e+01 1.3864726999224656e+01 1.7548940828246550e+01 -1 0 0
1130 87 728 5.9999999999999998e-02 1.5611261871036580e+01 1.2268466568854452e+01 1.6900747378193007e+01 0 0 0
244 19 721 -5.0000000000000000e-01 2.3663708208001783e+01 1.8755023935482896e+01 1.3626189974234435e+01 -1 -1 0
971 75 725 -1.0000000000000001e-01 1.5533318225922194e+01 1.2809621037601772e+01 2.4434886514896537e+01 0 0 0
221 17 728 5.9999999999999998e-02 2.3805652517266520e+01 2.3372709834226534e+01 1.7115763338031929e+01 0 0 0
445 35 727 2.9999999999999999e-02 2.3455379486607256e+01 1.6124898263238848e+01 1.2106780815357498e+01 0 0 -1
614 48 727 2.9999999999999999e-02 2.1286655125172626e+01 1.2143778264856468e+01 2.4510526873630006e+01 1 0 -1
1300 100 728 5.9999999999999998e-02 2.4596876969707715e+01 1.3523879675164377e+01 1.5392470172438836e+01 -1 0 0
703 55 723 2.0999999999999999e-01 2.3962461117868198e+01 1.9633175442686067e+01 2.4556188686882024e+01 0 -2 -1

Velocities

104 1.8315585122487144e-02 2.0798954345994485e-02 -3.1052283039607288e-03
118 -6.8330984476875408e-03 3.0984981007114516e-03 1.0897737944211632e-02
488 3.2531552637935994e-02 5.0003836265444948e-03 -1.3099683233239789e-02
538 3.0389884144777666e-03 4.5380333061335407e-03 1.3379801968825742e-03
831 4.1482068734545584e-03 -1.2501690966799034e-02 5.6175367694326936e-04
123 -3.6674826136219398e-02 1.7751457238777028e-02 1.8391121676743487e-02
156 -2.0319737196668200e-02 -3.1559904359175711e-03 -8.8149642485999668e-03
822 4.0512360990310048e-04 -5.2678778770349618e-03 -9.4971488963698312e-03
1108 1.9052037238895332e-03 -4.7036004500523718e-04 4.0037344668348357e-03
90 -2.9890666900210549e-03 2.1510956636301013e-02 2.7761567011703285e-02
161 -2.9453482424519903e-03 -2.2067870493376290e-03 6.9871267531823114e-03
92 4.6973704501407851e-03 5.4983861476284633e-03 3.4271566605454827e-03
504 5.6368047895438240e-03 -5.2897627446181371e-03 -2.5949182994824595e-03
1107 -3.1447254292513247e-03 2.3457555732552099e-03 6.5768514794088805e-03
492 -8.8457496428914796e-03 -8.4376929415086177e-03 -1.1101953005367983e-02
163 -8.8627800024245577e-03 -4.8236667245297547e-03 -1.2818507696501225e-02
667 3.0850371949448950e-03 -3.3697124979530429e-03 -2.5157432824651281e-03
435 1.0277558223804925e-02 7.5317180501306084e-04 1.5333237199504171e-02
501 -2.0158387794889138e-03 -1.7293806949603915e-02 1.3063552172411872e-02
823 1.3879358641420202e-03 1.0111387920704771e-02 -5.6981027322532650e-03
630 1.5886186193696087e-02 -5.0983497429885755e-03 3.3129017590387451e-02
628 -7.8074091203053850e-03 -5.6531147613481571e-03 4.8492596446007424e-03
166 3.8194166079883319e-03 -1.3603860718838889e-03 8.8715428250039016e-03
659 -3.9534578100133356e-03 3.7667487401897939e-03 5.5025604967185251e-04
84 -1.7765892305066217e-02 -1.8205164712627335e-02 -1.3606315235633350e-03
627 1.7765980307780007e-02 -1.6392231919076419e-02 -1.2852258182126135e-02
653 2.3507836136451923e-02 2.9120694464080314e-03 9.9340578464063821e-03
436 -7.5832453822837816e-03 3.1576863714645818e-02 2.0774530077398996e-02
494 -6.7261943330301664e-03 1.9927579616984319e-02 1.2174235977664781e-02
79 -4.6464848610163747e-03 1.6472818120674059e-03 -3.0987533289276673e-03
493 2.1508040463980326e-03 2.3871873128151668e-03 2.5183922585087053e-02
479 -6.2193948787134387e-04 1.0059798935839087e-02 4.4444965363724439e-03
485 -3.2742939401581858e-03 3.4686344483205547e-03 -3.7831190392922129e-03
498 -7.1721021626703517e-03 -3.2949348382418681e-03 -1.2725907261295984e-03
121 2.0807667309465845e-03 -1.9134808257956540e-03 -4.1441172064177294e-03
141 -1.0222226890828258e-02 1.8042169287745874e-03 2.6870344527544696e-02
537 -2.3791237660039295e-03 -6.7755968020912207e-03 -1.7402931526451426e-03
420 5.8011747180252392e-03 -7.2130594311046179e-04 4.0803547568088916e-05
1116 -2.6188002685170252e-02 1.8606103619126273e-02 -1.4306817181596558e-02
1106 8.3045735979499972e-04 5.0630116441903921e-03 1.5417387266239610e-02
91 8.0999685838789408e-03 7.0304859228906922e-03 -1.8962358897274999e-02
205 1.2095741186192183e-03 -4.0172766833605862e-03 -4.2892343323801922e-03
125 2.7887956512858531e-03 5.2793038816253413e-03 -5.9502116653735960e-03
638 4.8696295019176493e-03 -3.9503663503645580e-04 -5.4760314903989438e-03
821 -6.9930715463051652e-03 -3.1364278089421388e-03 7.0989655660351984e-03
199 -1.6655132602083327e-03 -2.8163079073614669e-03 8.8573710026079860e-03
520 -1.0117507773930003e-02 1.6389215615913024e-02 5.5949821522549579e-03
1113 1.1660421987729219e-03 2.5938732695479890e-03 7.1432270588124031e-03
476 -5.2334279254110641e-04 4.7827622028400914e-03 -4.7721538429566545e-03
655 6.8736394109849726e-03 6.4188022930858151e-04 5.6800346102076861e-03
644 -9.8313353269397635e-03 6.9856610418745496e-03 4.2563377445443669e-03
502 -1.0149801931781055e-02 -5.9220274136205621e-03 4.9189080152941727e-03
888 1.1721067478994830e-03 -6.6650189988563672e-04 -6.0936933545981302e-03
673 -5.2562861208338776e-04 7.2758903092241334e-04 -4.6692580165149412e-03
100 4.7158911700992352e-04 -1.6032909030384147e-06 -1.3303614951453281e-03
433 1.4345384382027306e-03 -5.7172107002955320e-03 -3.3536584724857175e-03
826 5.8587689853760831e-03 5.7018193938268968e-03 1.3147598514953304e-02
828 5.2494852789948109e-04 -1.5408767743351294e-02 -5.1537823976736744e-03
629 1.5682353086230621e-03 6.7020286085624713e-04 5.7497437021510108e-03
495 3.7190586900438466e-03 -6.2186672645998039e-04 3.3027960180618782e-03
1112 9.1468617392219502e-03 -7.9527447555303096e-03 1.4264038524292987e-02
471 2.9432766114763961e-02 3.1063202856875104e-02 1.2698652786492150e-02
1111 1.0471217695652987e-03 2.3111670255424138e-02 1.6926115858488699e-02
98 -1.9096277213344556e-03 4.6649992537873761e-03 -2.9886891171890194e-03
375 -2.4568435002005208e-02 -8.1490143966878297e-03 -4.1684376771463239e-03
651 3.8397144101436150e-03 -2.7731462649050973e-05 1.0173394108807738e-03
661 -1.3875442311036885e-02 3.4327810251697087e-02 -1.7262113224564498e-02
642 -5.3106887335835384e-04 1.9521544286395960e-03 -3.1971430978830974e-03
122 -7.5878197668206946e-04 -7.8957429929641537e-04 3.8176672995159015e-03
765 3.8811173836166932e-02 -9.3029167773265951e-03 4.3791436882890285e-03
124 -2.3351750141944773e-02 1.3055772431665539e-02 4.8288824219683184e-03
632 -1.7187835951714301e-04 1.9848557294703051e-03 -1.8812223853819641e-03
75 -9.1908422782512359e-04 -7.1539763228125261e-03 -4.5080362897731404e-03
543 -5.0654783973530396e-04 -6.5945510395177430e-03 -4.6025267746243629e-03
1110 -4.1392437501592081e-03 -8.4761314994749627e-03 1.2188468815519506e-03
519 -4.8468362943194666e-03 -2.0706615142193113e-03 1.4502025378667002e-02
1118 -2.4487253266749682e-02 -2.3937976068831881e-02 -5.2040171402386595e-04
483 -7.8323907727475967e-03 -6.1934756201982067e-04 -5.6278885309882568e-04
662 2.9266346395165101e-02 1.3748855656891646e-02 9.0192859330210911e-03
482 -8.8153553531761138e-03 -3.4501650906570672e-03 5.7489472906098321e-03
832 -3.2863614613946983e-02 1.5011279647527759e-02 1.1308621379451851e-02
490 -2.8174328127755681e-03 -1.0193698561519127e-02 3.2343293050833425e-04
536 5.3556840763123951e-03 6.4211764754977920e-03 2.3321971350647012e-02
496 -2.0962706878840734e-03 4.2465181643694329e-04 -3.4465116495336267e-03
652 1.3076394087737451e-03 4.6456269894184828e-03 1.6875765396223202e-03
825 1.7106392541142792e-02 -1.4102479947149421e-02 -2.7288302641663667e-02
1109 7.9493522240040478e-03 4.3258485797934279e-03 2.1347510683633734e-03
442 2.5569722227537405e-02 2.6255005500054874e-02 -7.0243001797207537e-03
535 -4.6818595681865135e-03 -5.8765828081718853e-04 -3.1337166028121833e-03
93 -2.9138981749410276e-03 -9.3079042562053526e-03 -4.3553554054742760e-05
469 -4.1869088522922806e-03 5.6834023067218291e-03 1.7048662827376143e-03
1115 4.9294124448262880e-03 3.5106273979415626e-03 9.2129841773563211e-03
480 -2.2858603352581493e-02 1.1704709378155514e-03 -1.7465183540539003e-04
656 -7.4672271261022076e-03 -6.4997936768842607e-03 -2.5490884702308279e-02
894 -2.1801534060319348e-03 -5.9246443335279741e-03 -9.1313008823758429e-04
157 4.4609608512844422e-03 -4.2391751276296399e-03 -5.3696595717823842e-03
484 -2.1436877592457416e-02 -8.7422252838013689e-03 -6.5867102825969352e-04
500 1.3285704149146368e-02 -1.2392455236849004e-02 2.0436848999686966e-02
820 3.8709364782396898e-03 -2.0541261374778380e-03 -1.7073115944243021e-04
481 -6.1320046005174690e-03 -8.1248122156756444e-03 3.0194814905667850e-02
541 -1.9470319275903102e-03 6.9276196312705640e-05 4.5119238395294442e-04
625 -1.2153621395205429e-03 -4.2023546578559843e-03 1.2210819763690279e-03
663 3.7427686202217009e-02 -2.8173051578354046e-02 6.3758183940405772e-03
634 1.8308671691384037e-03 -7.9459879211532351e-03 -6.4278661807311791e-03
80 1.5117742526750262e-04 9.0235423429431947e-04 -6.4467730279603843e-03
643 7.0570249240569033e-03 3.5239456089996880e-03 6.8061942674809747e-03
94 6.3054910607804717e-03 1.6299372204270447e-02 5.0212680686126492e-03
489 5.2978741334950338e-03 1.8029044452786371e-05 8.6928094240152857e-03
437 -1.7816696816152608e-03 4.7264803179368651e-03 2.0252290064431992e-03
434 1.3022213773693486e-03 2.6817868814119536e-03 7.6119785484785919e-04
824 -3.4220310308378957e-04 1.5901180880702860e-03 1.2759541240174258e-03
631 5.6013837325346472e-03 -9.2088220738571463e-03 6.6902964900350144e-03
470 -5.2222273631470093e-03 -8.4988776092498461e-04 -1.1613937031605141e-03
426 1.2915578596311998e-03 3.5745365238390395e-03 2.9916524560683294e-03
474 8.9016242561177766e-03 -1.4801944528528446e-03 5.4995921673385703e-03
510 4.2299512770286422e-03 -7.2873624303285275e-03 -1.5331756377437266e-02
1117 3.2129291088362759e-02 -6.6798462290720241e-03 -2.2890134699490534e-02
626 2.7817801542725357e-04 -3.6592057884777163e-03 8.0980819022300355e-03
102 -2.0925142793288879e-03 -2.3072614012750337e-02 1.4301941236807630e-03
477 -7.5025040054777677e-03 -1.9630548430268767e-03 -2.3233135149819629e-03
830 -7.0566620188703549e-03 -1.0925824475089831e-02 9.9583616391659673e-03
827 -6.1742189578524176e-03 4.1289577381881294e-04 2.3666816389865988e-04
119 8.8584027630031958e-04 -6.0850883201685659e-03 1.1200686856602851e-02
499 -2.7758233453274964e-03 -5.0173339826986704e-03 9.6464658140709078e-03
85 -1.7950102443050984e-02 8.6408312292547002e-03 -1.4913512859466916e-02
1114 -3.1331894690642152e-03 3.1168804574912652e-03 4.1933872270656712e-05
657 6.4197368136226273e-03 2.9405499593005570e-02 1.6721558104267870e-02
120 8.0405702021327363e-03 -2.7294601279732923e-02 1.7279948012106885e-02
475 -2.2724519408108047e-03 -1.6962250090305546e-02 8.9112694869775289e-03
62 2.9991221158124264e-03 -4.4278831017924188e-03 2.8253588761675535e-03
97 1.3066756658118668e-02 -2.4503032179974016e-02 2.0113674369033109e-03
462 1.0725849281023056e-03 4.6784791126843368e-03 1.8665511582099177e-02
89 3.5970922328362074e-03 -2.6303880976355696e-02 3.2725072129053266e-03
430 -5.4534740135412990e-03 -2.7227304243385504e-03 3.3111664580422777e-03
648 2.1707831284740985e-02 5.9042986772219006e-04 1.8957617695523787e-02
431 -1.3193860451567369e-03 -9.7250426697995172e-04 3.2366217082891182e-03
432 6.4841655932914707e-03 -1.1002081900878275e-03 1.9687919499292118e-03
639 4.8200991794285566e-03 -1.1206128863996568e-03 -6.7692456808292360e-03
127 4.8792760501046853e-03 5.9507771697203248e-04 -5.5481312358770267e-03
640 -5.8202489047796124e-03 -1.2204746910641353e-02 2.2941595382618526e-02
360 -7.1789742501124918e-03 -3.5430143707965854e-03 5.1085912246692840e-03
162 1.1564089291870363e-02 -4.1724259234221309e-03 -9.7879304199830226e-03
87 -1.9766444890846032e-03 8.2791836528251610e-03 2.9654433729654601e-03
658 -4.4622834929039668e-03 -8.8841779144083525e-04 2.1113610496156683e-03
487 1.6910954951455275e-02 8.1410082776041011e-03 2.1833479718059372e-02
364 -9.9376130823819967e-03 -1.0873050381517277e-02 2.5396909442561361e-02
472 -3.1293257815251641e-03 -1.1460639829075480e-03 -1.2387909397579213e-03
38 1.8576809865377534e-03 -1.3041391316280807e-02 3.3599322129836419e-03
376 5.7064426349728529e-03 -5.2531111229512390e-03 4.0562022033901167e-04
421 2.8284531849402466e-03 -2.4865921246078168e-03 -1.4617798651386609e-03
126 4.1429803209852741e-03 -5.9900910196821044e-03 -7.5598827604010438e-03
507 1.8587763460765735e-02 2.0465829845670528e-02 -8.2298537941048432e-03
668 -1.3623407752538235e-03 2.2345554877877980e-03 -2.1976187056152270e-03
516 -7.1978537420507634e-03 1.6672089848441265e-03 -3.7765228198038438e-03
555 1.2702705388660824e-03 4.4426592364310014e-03 -4.5201185226429767e-03
756 -3.2276930873568368e-03 1.5527791516799761e-03 -2.2547003498140023e-04
33 2.0327452990025821e-02 1.6032868217155681e-02 -1.9334451476755967e-02
1214 -1.0023605813186088e-02 2.8172211382720583e-03 -4.0808744695498850e-03
548 -1.9275307562442124e-03 -2.0747171243057586e-03 2.7264718214485726e-03
99 -3.9518462644182652e-03 5.6543264917624340e-03 9.7099406329813058e-05
1277 9.4195847431608696e-03 -1.1350464772674146e-02 -1.2539105228199154e-02
1093 3.2200742924289602e-03 -1.7303397274376808e-03 -1.2653331906570478e-04
558 2.0409097783138080e-03 8.9556782083568699e-03 -3.4326928313843114e-03
128 1.3640770474220921e-02 8.5040129389609299e-03 1.6470677931601861e-02
165 -3.6376452302330380e-03 6.4192003057376404e-04 -4.8040421187213614e-03
159 -2.3185992338600570e-02 -1.6844458745067917e-02 -9.0774655787566436e-04
1217 -1.0441357267918235e-04 -1.8887027263557190e-03 1.0180237642574406e-03
23 -3.2234714416902038e-03 -2.2865510584706107e-03 -2.3332919243816645e-03
1179 -2.1572590167751250e-03 7.2981748720291441e-04 5.3210994446124746e-03
31 -1.3382048440482236e-02 2.5186613870941429e-03 -6.8238558679385858e-03
1281 2.7747105793162238e-02 3.9538618987361397e-03 -1.6636192304536154e-02
1283 4.8843636650262815e-03 -2.5419250099738716e-03 6.3023054425502697e-04
549 4.7026347492913987e-03 1.7569567250782230e-02 1.4093695376261352e-02
1284 -1.8186060206576847e-04 5.7861542231380280e-03 5.6139106240004864e-05
274 -3.0962052854189136e-03 1.0238993196978456e-02 -8.8379851253764987e-03
173 3.5934348409278837e-03 -7.3970845982816308e-03 -4.8858947066293618e-03
511 5.7963962976218210e-03 -1.5515329603728860e-03 -8.5091051156467225e-03
170 7.6145627404725748e-03 -7.6819547883126365e-04 -3.6516626469320192e-03
988 -1.9077114945035875e-02 2.4139347343427028e-02 -1.0243547215194887e-02
175 -1.6535841722327971e-02 -4.3731825147438948e-03 -1.7964990368373498e-02
456 -4.8580120078194821e-03 -1.4476833334203560e-03 6.9808931729097561e-03
281 -8.0002758795475713e-03 -3.0003166890432290e-03 3.3727246532546014e-04
763 -8.1804961849495279e-04 4.6344128033134610e-03 -4.4555636892206927e-03
282 -6.3096197400545678e-03 9.5389979735669532e-03 2.0610615215163868e-03
1103 1.6557365807144595e-02 -4.8888805151239487e-03 -5.3226279677230752e-03
168 1.1767487833681953e-02 -6.3676356953257102e-03 3.6915290212288787e-02
514 1.6937329869561057e-04 2.6533775876258929e-02 1.4716344599377852e-02
1178 -3.4545436107269495e-03 1.2589687977056245e-03 -4.3208052062662467e-03
333 -1.7184451790241864e-03 -8.4140204484908516e-03 3.0661404472978105e-04
1100 -3.3167954530300375e-03 3.7121862749658805e-03 -8.4051903557818370e-04
1220 6.9633817672608558e-03 -1.0418711427225712e-02 3.4443512187924523e-04
1216 -1.5896036440558457e-02 -2.3511568846605126e-02 1.8788098423373586e-02
176 -1.6024670914433416e-02 -1.2740814527889803e-02 -9.0025411555940717e-03
512 -2.7312075378714403e-03 -6.1616333521471410e-03 1.6968044379909353e-03
1211 -2.3542529536133922e-04 1.7396233560527568e-03 5.2664268706760480e-03
976 -1.7347314967616635e-03 -3.9181194084810756e-03 -2.0810866276961171e-03
1285 1.8826287822635884e-02 2.6508879201664211e-03 -8.4915887284692376e-03
987 5.5389315028835711e-03 -1.0787336295868604e-02 -2.7473484210179248e-02
130 -1.1985805611860136e-02 7.4412922838111087e-03 2.3562666900787888e-02
518 6.2580777038084056e-03 1.3892157431879241e-02 -5.5189549712546032e-03
1098 1.2117336114411271e-03 5.7486693585068364e-05 -2.9257087098658038e-02
982 -2.4192792320624948e-02 5.4667856314997998e-04 5.1591734563471662e-03
1212 -1.4304613375056197e-02 7.7297300304421867e-03 7.9681875523549429e-03
177 -5.3120217385047930e-03 2.9874583542816623e-03 -3.7384019483690406e-03
1210 -7.6284944713145232e-04 -5.4112590553126439e-04 -1.2679199389470720e-03
1183 1.2959084238081751e-02 -5.3015748850905346e-03 1.4125434414416866e-02
37 2.6440244991042427e-02 6.9665907319117152e-03 -6.2318712375009832e-03
439 -2.7018099427695268e-03 1.1686626513401862e-03 -3.1692114215918117e-03
284 -6.7479220461169253e-03 -3.3538273311877045e-02 -2.4907597225023302e-02
329 2.0503641146830953e-04 -5.2713144472384056e-04 -1.9509642545417272e-03
1094 -4.8765186629383195e-03 -4.9725986779109348e-03 -5.4089366523331038e-03
32 -1.2025207598122872e-02 -1.2547167831870022e-04 -2.4125459846216283e-02
285 3.4652164388164383e-04 -1.7586708285881578e-02 -2.1292258226769695e-02
829 -5.3731848557067568e-03 1.8129655512454253e-03 -8.7768728978351114e-04
1271 -6.2976490484975903e-03 7.8263381930049475e-03 2.4147710325173630e-04
1275 -3.7343070581972101e-03 -4.6333829444507807e-03 5.3397858978234750e-03
1269 1.1337583181115966e-02 3.1701831671548490e-03 -4.3908216677966006e-03
1104 -1.2882557664414649e-02 -2.3874359786113436e-02 1.4517898748931429e-02
1265 7.9816694074895823e-03 -1.0506296462152497e-04 2.6372562700454861e-03
30 7.2730971698416679e-04 -2.6025573597384223e-03 3.9843378090104308e-03
28 1.6104525103111508e-03 2.1482792144707796e-03 -4.1281853683914080e-03
1181 -1.4975318993756023e-02 -5.4284449164221649e-03 1.9319629878878427e-03
22 2.6834087362983413e-03 3.6560036023741416e-03 -3.4229239556259846e-03
276 -2.6038095067162276e-02 -6.9977557431409737e-03 1.8447777657658081e-03
633 5.2654633535423479e-03 -1.9077391296149272e-03 3.6950968200729854e-03
757 -2.1402673822739204e-02 3.2697567732706727e-03 2.2007416542275688e-02
35 9.8192084739162264e-04 4.2865022556237671e-03 2.9293556048720208e-03
517 4.2192670045320731e-03 -5.2640969717419129e-03 -1.2520291596834245e-04
984 -2.2208358172074215e-03 -4.7885276036308318e-03 3.7492460178420992e-04
1219 8.0955371488644016e-04 -4.0026173821919838e-03 -5.1629621027730888e-03
39 2.4368585961677323e-02 3.1639212416033471e-02 -2.0129670790592249e-03
1222 1.8265639800163332e-02 -6.8679797704889077e-03 5.6586656883858780e-03
458 6.7984593407293464e-03 3.6715035046874897e-03 -2.2521751005491995e-02
1276 -7.8955960022601534e-03 -5.9608575125383008e-03 -8.7688118384397242e-04
1096 1.3936119887907328e-02 -4.3485317228020588e-03 1.5343488722368639e-03
463 6.3364571308851553e-03 3.4919432688339144e-04 2.0533095578895207e-03
26 -6.2362297985601566e-03 -5.5870500461373453e-03 1.1305065086597316e-02
1221 1.7683562202706973e-02 -2.7267753970205565e-03 -1.0437673993515986e-03
515 -2.1356481363827935e-03 -1.6709386687493394e-03 -5.4839423093045077e-03
29 -1.2359646780933544e-02 1.7119883190143950e-03 -1.7863004356798967e-02
164 -5.4416762033582221e-03 1.9370796899276326e-03 -2.5122579897301758e-03
981 1.7783614324095847e-02 2.7810103762751157e-02 5.2537107225192206e-03
766 -1.2297588572320167e-02 -1.8648738748653849e-02 -2.4531842077394665e-02
275 3.9624502380431513e-03 -2.5882892076393486e-03 5.0300519240904411e-03
635 -1.0752499100158691e-02 8.5633967669202921e-03 -6.3725728457557623e-04
1172 -7.5325345542045508e-03 5.5529068822785183e-03 8.4091738305652720e-04
1282 3.1485897410956894e-03 3.2411518146336369e-03 -2.4846771526714196e-03
178 1.1658097618789630e-03 9.6686200473636574e-03 -3.5420456355687449e-03
27 -4.5440085555373738e-04 9.7665166753973694e-03 -9.7892395748112697e-04
1215 -4.3484495428594084e-03 6.0611693335125309e-03 -5.3616190111670297e-03
1213 -1.1113513615418373e-03 -2.8088619444924571e-03 -2.2677460444375922e-03
1280 -1.1186236966976537e-02 6.1629017052727466e-03 -9.2657579370974529e-03
1180 -9.4959836912983646e-04 -4.6101721152398030e-03 -2.3110445141237197e-03
977 2.7605743276442971e-03 6.8167508167361131e-04 -6.0049177416476602e-03
182 -9.2460892672482156e-03 -2.4058050574707005e-02 1.0814879696941370e-02
17 -6.9916233449103928e-04 1.0216481450954276e-03 2.8466024279794199e-03
180 4.3818650341242091e-03 9.0386433465163077e-03 -1.7728465075626448e-02
559 1.7158532116991708e-03 2.6506776177806727e-02 1.9328375542761733e-02
21 -3.5415685188061692e-03 -3.9765770760081210e-03 -2.9312036295277501e-03
1101 -3.8290233799140728e-03 6.9376690551706723e-03 6.2347758579249849e-04
181 -7.7041234487901528e-03 -2.3698654627301585e-02 9.0621633944474346e-03
278 6.7966377160515504e-04 -6.6690445521546812e-03 4.6522878227467182e-05
513 1.5111464161276313e-02 -1.4241564681860610e-02 -2.7020572170931800e-02
283 4.0587033833086004e-03 3.3517423658064194e-03 -2.5379020309493957e-03
279 -1.5818698704162710e-02 -6.1199280501081340e-03 -1.5601539899775361e-02
1287 -7.1981224236472184e-04 3.2651639483355602e-02 3.0095262053166347e-02
24 -5.3413163384498702e-03 -1.8205349982757451e-02 -3.8315638093120961e-03
762 -2.9307874980603597e-03 4.4485499723226791e-04 4.0038218164816739e-04
286 6.0678633707911163e-03 2.1740785042509907e-03 -1.5408991994027814e-02
637 8.3647870337641081e-03 1.6985515605476887e-02 1.7000031467447368e-02
103 -3.1249566106721680e-02 2.5681907113406580e-02 3.9607456233383773e-03
1278 8.2713669112331398e-03 -5.3589972478746903e-03 2.3618758597578364e-03
1286 -1.2106169792250949e-02 -2.4413981681979230e-03 3.4571212128350825e-03
174 5.7538294731441127e-03 7.7403969657773020e-03 3.6230789553621792e-03
34 -3.7861708325214248e-03 -4.5231255046297540e-03 -1.0403121520834693e-02
978 1.6246858928719712e-02 -1.1590628605647533e-02 -2.0908400121510563e-02
1095 3.4810677303134634e-02 -7.2170643248074913e-03 -2.2278268578284671e-02
158 -3.2883020735631780e-03 -3.0588904569563741e-03 -1.9593852582978119e-04
36 1.6071280294687902e-03 3.3833682136376556e-03 3.8702943617182121e-03
767 2.0535395381963983e-02 7.6352901568714103e-03 -1.3151466587262755e-02
160 6.8715141543895155e-03 8.9413094944562274e-04 -4.4966447858416055e-03
277 -4.4325961126043679e-04 -1.7168240180806403e-03 -5.6227020737226541e-03
1105 -7.2735307366406836e-05 2.7752580829535391e-03 5.8697297315508652e-04
457 -1.0566089498454615e-03 8.7952312450918346e-03 -7.9334220644719077e-04
636 -3.9322065317704137e-02 2.2376559034259589e-03 8.3522522431076097e-03
335 -3.1138234819053971e-05 -8.7121185229893595e-04 7.6568385833080165e-03
986 -5.5247834399930994e-03 2.3801297500347814e-04 -6.2324996392026941e-03
167 -2.2821024662905032e-02 -1.3535284174450357e-02 -2.1453366456698809e-02
1097 2.3832123121709566e-03 6.9259240280008299e-03 -7.0921789254109891e-04
1218 -3.2390199243748807e-04 -5.1282394898678014e-04 3.9769904669125769e-03
1173 -1.8668190577967043e-02 -2.1212788438141140e-05 -1.3594035877940010e-02
509 2.9859136440352164e-03 1.5824706297489152e-03 3.0061949825724321e-03
280 6.4971887189475422e-03 1.6225886435510407e-02 6.5274933750001426e-03
65 -1.4111507932377837e-02 -2.9174060527507231e-02 -8.0608193696011313e-03
508 -8.1725984221505841e-04 4.4263093095619809e-03 2.8308901467963923e-03
172 -1.5058830748581572e-02 2.9009318026625246e-02 9.9396089147708120e-03
1279 2.6992525464397837e-03 -5.4076523419225734e-03 4.8606116074513348e-03
1177 3.1050141480566402e-02 8.8645056490120281e-03 1.7657302262634141e-04
169 1.2778000840721906e-02 -7.9296639902835591e-04 1.1820405094517442e-02
171 -1.0253010962314938e-02 -7.4750213201937019e-04 6.5004800667664972e-03
153 3.7300132736056745e-03 -3.6781806506308149e-03 -6.1003767330107435e-03
129 -1.3546982712547154e-02 -1.6867081821875338e-03 2.2378349319851568e-02
473 3.9874940104716880e-03 2.5464367044817108e-03 9.4198768907876179e-03
1161 -6.1624584501619156e-03 -5.7597878024320413e-04 2.1402737018061560e-03
201 7.5959235958007612e-04 -5.2392257124054091e-03 9.3281056065864284e-03
272 -8.0801786084737422e-03 -2.5798660979308660e-02 -2.6025917525052140e-02
1034 -7.1195730367154056e-03 1.4193540412045017e-02 -1.1274767782068110e-02
143 6.9941342690371345e-03 -9.9334961550507101e-03 -9.7760800232409868e-03
196 6.5215179325956085e-03 -1.7142107769471102e-03 -1.0709491168643327e-02
1169 -1.4124536351877912e-02 1.7105109687774688e-02 2.8387308639753650e-03
131 1.9752700675011057e-03 -1.2807551062345788e-03 3.2870515793907572e-03
932 1.4827244072084080e-03 -3.6452040840189684e-03 -7.7761420599922298e-05
146 1.2419823319642866e-02 -5.1023887925849665e-02 9.9404135098053112e-03
835 -2.7464996230223294e-02 5.8967016077289521e-03 8.3554691502764986e-03
800 9.3495730315438456e-03 -8.9370486295514574e-03 2.2857337864597626e-04
1158 5.7578499656661319e-03 2.7854229692767978e-03 5.1096999655820576e-03
801 -4.8314906769780152e-03 -1.3075505587208641e-03 -5.9031000277938168e-04
798 -2.5418452476417969e-03 -1.8962830629301428e-03 -9.4896537278953803e-04
890 -3.2175642105015108e-03 -3.2323766670823165e-02 -1.8717783291647090e-02
197 -5.6402264377993731e-03 -3.2932795728467519e-03 6.3376220664993922e-03
1260 1.9322815752045464e-02 1.4518619160028437e-02 9.8881557319527337e-03
1253 -4.3140082476048388e-03 -2.3767271538215730e-03 7.9908809576077731e-03
843 -5.6230604530938940e-03 -2.8279193149368899e-03 -2.2609821158048491e-03
262 -1.4842148444060837e-03 1.6591711308495609e-03 -6.5979944006500861e-04
135 6.6107776226846347e-03 -3.0440634297036391e-03 4.8307213283734348e-03
885 -2.3038075820474586e-03 -1.2204818636599025e-03 7.2973955002872907e-03
137 7.7050239006362410e-03 1.1700801693943616e-02 1.3825626531737909e-02
88 -2.2474874796057608e-03 -4.0855537807248830e-05 -1.3890886104040755e-03
1029 2.2636238632584311e-04 8.4790038216768365e-03 5.8181185856510248e-03
803 -2.1919550320134680e-03 2.9801081676496580e-03 5.3088638953507940e-03
649 5.5898391547622881e-03 1.2722175630206615e-02 9.1940639226403137e-03
1259 5.3375104349646001e-03 1.1311577930901441e-02 1.9962120518002982e-03
361 3.8876815124027574e-03 -3.4160296807985175e-03 1.3035441947656518e-03
1033 -2.9196709092609552e-03 -1.3455158349127774e-02 -7.5157110605988623e-03
1251 -5.4180245679633808e-03 -2.0277068715498663e-02 -3.2720621782102596e-02
1164 8.1577616858181899e-03 -9.8495628234971048e-03 3.6276479778319481e-03
83 -5.1925708932772556e-03 -9.1100668848627369e-03 3.6351081056769934e-03
428 1.0010371462021406e-03 -2.5461592670011728e-02 2.4662794195922724e-02
273 -2.0925357296758425e-02 6.0026953541735062e-03 -1.1924576554628820e-03
356 -3.7052139004468444e-03 -4.0634011149184605e-03 -6.1016904676911227e-03
596 7.9391470782574809e-03 -7.0910907169534684e-03 -1.0872599324623167e-02
645 5.1004076302214639e-03 3.1719994151373221e-03 1.4231732047630312e-03
134 -3.8189741820207272e-03 -9.9609134915106131e-04 -1.2040500763641584e-03
142 4.4065818011363705e-03 -4.0297611685946007e-03 3.5276895095563022e-03
139 8.3877844897991983e-03 4.6816882046450924e-03 1.5643875538166878e-03
1167 5.2717565198063905e-03 3.7156417848912995e-03 -2.1947611435744842e-04
671 -4.0765249337265134e-03 -1.6522647324610363e-03 -3.5936083298601274e-03
935 2.5274557079979356e-02 4.7492128128803603e-03 -5.8831929971235692e-03
736 1.4743835108538216e-03 1.5027390974228845e-03 4.3818668994828995e-03
892 -2.7444579546510002e-03 7.4992432463555636e-03 9.9011712192560741e-04
96 -4.8879947381011250e-03 -1.1881695247622588e-03 -1.5149178182039861e-03
665 6.2301895156568485e-03 -1.8100883958168884e-03 6.1253734075908655e-03
424 4.1844964947258985e-03 -4.3360698971998055e-03 9.3931829731410950e-04
1256 -1.0894483919379392e-03 -6.5944263136693869e-03 -3.1116405792113574e-03
359 -2.4978741432346825e-03 2.5070262200506220e-04 -4.1731258379422856e-03
151 -2.0415233638096269e-03 2.6684761023791424e-03 4.4833093966029915e-04
862 -2.4289998580356324e-03 -9.9022080934892142e-04 -4.5440640336367058e-03
1165 3.7323041119860594e-03 -4.5109242823097135e-04 3.5736430977881986e-03
261 6.6314765428131615e-03 -2.6758307260707141e-03 4.8662638289240483e-03
1159 4.6490459399902533e-03 9.6580442259991614e-03 -1.8103871303016363e-03
1038 -2.1754884777349222e-02 7.2146010697825844e-03 -1.0102036572529643e-02
138 -3.7655784577248370e-04 8.5657058791072289e-04 2.4386851112925718e-03
796 -1.3498326138488743e-02 5.7295243943243993e-03 -1.5952070881146942e-02
794 1.0246930089502684e-03 7.6741885663403743e-04 1.8394025319749831e-03
840 -7.1918545356291870e-03 1.4017885751574941e-03 4.2119075143401286e-03
930 -8.1769377602166696e-03 2.8607965446017227e-03 -1.2772817546014920e-02
198 2.4794580587036291e-02 1.0236977389376295e-02 -7.2647973604631133e-03
369 -3.3102352548447199e-03 -3.5048820534951137e-03 1.2161237586678420e-03
867 6.3834745987903603e-03 1.7398269559337814e-03 -8.4301137794308510e-03
422 -1.4670796948908039e-02 -6.4000341517801897e-03 -8.6847066558959993e-03
372 1.8662738866606708e-03 -5.6919359570477028e-03 -2.4941117681531542e-03
82 -4.7004519175524164e-03 5.9857361225304139e-03 -2.0698642751549533e-03
1039 1.9624579971236952e-02 -4.1272960948872811e-03 3.4050646943695681e-03
202 6.2003813220253565e-03 3.2395905385073850e-02 2.7896772666924030e-02
1166 5.1133302434359313e-03 3.1145643645620591e-04 1.6984073180694381e-03
925 -2.8351292392540448e-04 6.7689570654335179e-03 -5.3208873744624383e-03
1170 -1.6409495159773833e-03 -1.0980296247755029e-02 7.1785656827996923e-03
267 1.7031341782432106e-03 -2.2998904766839176e-02 5.5286380564479167e-04
353 -1.9196351002207559e-04 3.6771941510603690e-03 -6.0391789788603037e-03
839 4.0260491952822637e-03 -4.9807385087442656e-03 -1.8865641720075883e-02
868 -6.2752222611518488e-03 -2.3280219290909056e-04 -8.6388484083532273e-03
866 1.2289757831751460e-03 4.2793099125353357e-03 7.1907525515655327e-03
81 1.2416459769054964e-03 8.1945951696823557e-03 9.4330388776314705e-03
427 7.9425187323212427e-03 -1.9798538801288845e-02 3.3953590880292117e-03
834 -7.7663690099722456e-04 1.6133011591046430e-03 -5.8549568905660995e-04
263 6.4625545015430550e-03 1.2793200817854761e-02 -1.0081461343711464e-02
641 -3.6303009989418431e-04 -8.8453110887880509e-04 3.9645722496789888e-03
844 -9.3343188852251669e-03 -7.2765401226923361e-03 -1.3423621596846626e-02
838 -4.6896046900993648e-03 -4.7362469726973024e-03 -2.4035672684291659e-02
646 3.5484426241469201e-03 6.2378032595508757e-03 -1.9462205626413816e-03
836 -5.4441693059004300e-04 5.9893886020349783e-03 -1.8004005730730219e-03
1168 6.6331471346612169e-03 2.8561213033106731e-02 1.9003786744384424e-02
266 -2.0687344820501919e-03 4.0412583975800642e-03 3.5854597489009639e-03
133 2.7114277912306897e-03 1.2830659891655277e-02 1.0672266940577232e-02
833 2.8745020456722118e-03 5.8111994115318377e-03 6.1924870009176436e-03
208 6.7752729130590829e-03 2.3461957996204569e-02 2.3085620019081963e-02
1160 -3.0573351811720502e-02 5.8296616085966521e-03 4.9319112141864990e-03
368 -3.8072912203545562e-03 -5.6716497811179012e-03 -5.9290696245685864e-03
738 -3.2702640902906692e-03 -2.0892702739179494e-03 -4.6940099552440356e-03
1028 3.6882554391245094e-03 -3.6456240575514083e-04 1.1568926687361659e-03
837 -3.5273750963849522e-03 -1.2963410087066343e-03 -4.1443857415472138e-03
429 -1.0422352452010645e-02 1.8083451459311815e-02 -2.2512054679677138e-02
889 1.9519575785087024e-03 -3.3580822413154651e-03 9.3432550656776543e-03
842 2.7807933439392934e-03 2.7828766456195319e-03 8.6116228241048705e-03
265 -2.8956281093486303e-03 -6.1060080448083545e-03 -1.4665913403357337e-03
1257 3.1379475136644928e-03 1.7967819435356113e-03 1.1370731138184530e-02
354 -6.9293196732970425e-05 -1.7976331498473101e-02 -2.3073639836763856e-02
452 7.6605698496581952e-03 -9.1613992933860331e-04 -1.0245641171840907e-03
203 -4.4708015834449269e-03 2.2924939813733737e-03 -3.8359025393569631e-04
269 -3.2844769661469569e-03 -2.8419192472283576e-03 2.5691947494965632e-03
136 -1.4599003744746803e-02 2.9422664535762040e-02 5.3753692665616803e-03
732 -7.6960377490392371e-03 4.2345126292491365e-03 -2.5873404478951134e-04
268 4.2987796573746451e-03 3.1978991320106972e-03 -3.1965453229683508e-04
733 5.8970038985513762e-03 -2.1265666537359364e-03 -1.0755640703022020e-03
676 2.2973054133816510e-02 -4.5257375061338699e-04 7.2444727519082857e-03
934 -6.5400436124688030e-04 -9.6770716780696965e-03 1.4483593435692070e-02
1036 -4.7922706214280977e-03 -7.5428856410006892e-03 3.0116834686761619e-03
650 3.2782526005326472e-03 -1.2220030949270555e-03 -2.5079538870536062e-02
841 -7.1056629112789252e-03 2.7688412662993465e-03 -9.3031519987056832e-03
155 -3.2255827559795067e-03 8.6012674552920654e-03 1.6573989850480305e-02
887 -8.1282170875884776e-04 -2.8674324903977942e-02 4.2103871906848764e-02
845 2.1029369407227869e-02 -2.1391552682769280e-02 9.3837691723751455e-03
207 1.2629900318104278e-02 -2.0024623902479499e-02 3.2550153763046707e-02
132 4.2686026062113353e-03 2.1181926463773575e-03 6.2946106706709222e-04
1250 3.0261242674778370e-03 -3.2223217186619834e-03 2.8530717516460340e-03
145 -2.2871743475187576e-03 -6.3397687249251520e-03 -9.2498093153116634e-03
86 1.4289209139538040e-04 -2.3035322952714987e-03 -9.9475201724131429e-04
154 1.6601496450419344e-02 2.7320513851032329e-02 2.9154695626577475e-02
374 4.0457419800753597e-03 7.1361839581486636e-03 1.8454629742560434e-03
384 1.5578395544825686e-02 9.8451036417537101e-03 2.5000460426065192e-02
355 -4.6531007416232492e-03 -6.3746982560072829e-04 4.0156239826266973e-03
1249 3.7730100038480875e-03 8.5577488975863616e-03 -3.9490332818881172e-03
897 6.2182854668832509e-04 -1.7560639983911011e-03 1.0951996662644592e-02
206 -1.7351133547138940e-02 -5.4029774069775782e-03 2.0505853086168770e-03
1254 2.8601064932843062e-02 8.1725505687881234e-04 1.2698547589683628e-02
1162 6.7539402442745198e-04 4.6428436480012323e-03 -6.0217718043531140e-03
870 -1.0977426418234792e-02 -1.3797968707604759e-02 -6.4177073530051693e-03
152 8.2322985107285420e-04 1.3668072221360381e-03 3.6262891133286190e-03
795 2.0050978311027534e-03 -3.5634301945697156e-03 -2.3172190990840206e-03
864 7.7992262012784152e-03 -1.7094048332532846e-02 7.4130367722839968e-03
204 7.5898642716366212e-03 1.6548935450597219e-03 1.2855896304790175e-03
264 5.1501041496819630e-04 1.2326041790855519e-03 -3.7611364014982183e-03
893 -1.3468917089058896e-02 -3.6160742254076057e-03 -4.0257606445723449e-03
358 -4.2820374789794988e-02 3.1651944718394422e-03 -8.6137591882458255e-03
647 4.0764221583400925e-03 -2.5033502119929871e-03 5.9572114334976705e-03
740 1.7631377575852036e-02 -1.4114866027439407e-03 3.1016258666852113e-02
461 3.6928823119964219e-02 -5.9853642022620187e-03 2.1260249943107903e-02
924 -1.9262056360281398e-05 -5.9764300751100671e-03 7.2121519410994111e-03
929 -1.5053585435446182e-02 9.6538446030963107e-03 6.5725398793615789e-03
357 -3.0664509855854180e-03 2.4723342691656918e-02 3.1521240724983971e-03
797 7.1154557558575230e-03 7.9998951015142206e-03 -4.3871404483381867e-04
926 -6.8946594702952594e-03 1.6950099678791769e-02 1.8789794305503715e-02
936 -2.5665462055713503e-02 5.8506337275643248e-03 2.1783678014008857e-02
869 1.5108647699195470e-02 2.4963258733808977e-02 3.2268147002040067e-02
200 -1.0561003035744324e-03 -2.9167469900273414e-03 -3.8614901371348135e-03
418 -3.7522078830363767e-03 1.1684391712573725e-03 3.0916331231509902e-03
271 -3.1183653123095973e-02 -1.5684740364947013e-02 2.1335531455710696e-02
423 9.6363290856709138e-03 -4.7479322260583446e-03 -5.9839774230169770e-03
417 -2.0596336408859723e-03 7.4148453849340141e-03 -1.6117659958531096e-03
895 1.6222092245190060e-02 -6.3846108428325897e-04 5.4837079307139078e-03
1040 -3.9024571764811458e-02 2.9965196893670886e-03 5.3954927954691359e-03
1261 1.2674191516027552e-02 1.9159434676292726e-02 -3.1392982479298663e-02
860 6.9409120774596830e-04 8.4380038767772794e-04 -1.1721887374573258e-02
1163 6.6717782515721032e-03 -1.7989938578726151e-02 4.9195434842976855e-03
419 7.0627892844533436e-03 2.0371487638036607e-02 -1.1790824406390538e-02
886 2.9215136987206414e-03 -6.5146437062271762e-03 -5.4282855933481255e-03
352 -6.6602188929038905e-03 6.8708543853053311e-03 7.4940295250165226e-03
425 -1.6443033321699798e-03 3.1756199850625838e-03 3.8406757426086582e-03
871 1.2238468313478362e-02 9.7691922797089794e-03 -2.0389452817118452e-02
1255 -9.8790013287524351e-03 1.0634050640239226e-03 -1.2052258471297522e-02
896 7.4018971575709721e-03 3.1668633330749619e-03 1.0028308361948665e-02
891 1.2002344688030705e-02 5.1922772139790805e-03 -2.4741340893238311e-03
672 8.8622738522831750e-03 -4.7309072759445098e-03 6.9153336586425841e-03
1030 -2.3232754642169260e-02 1.1034049868089030e-02 -5.3648003554656858e-03
713 4.2930197560293808e-02 3.1994918094049450e-03 1.5489807002010670e-04
140 1.7919383814027955e-03 -4.8760243768175299e-03 -8.9309847472795745e-03
705 7.4716217689186530e-03 -1.0437896752137693e-02 1.7642257026441750e-03
296 2.2083476555742562e-03 -2.1438563072328732e-03 -2.0345652740762846e-03
729 -9.3194715098479201e-03 -7.0805948880235323e-04 -2.1347775986638711e-03
1134 2.1073758517070908e-02 2.7856550628476769e-03 -1.7827971902327943e-02
741 -3.2912467462905881e-02 4.7857570048401629e-03 -1.9296262399842383e-02
920 -2.3118278143004901e-03 4.4553522556188040e-03 -1.7783960769533014e-03
568 7.9166684605393497e-03 1.5096728773453757e-03 3.7179562636566539e-03
210 -2.6666740253687249e-03 -6.3346227916795464e-03 2.4191413279261945e-03
678 4.7198903849552448e-03 3.7522085037471190e-03 -5.3932458618658084e-03
1141 4.6891322307899882e-03 1.8323579096608878e-03 -2.2312601788512776e-04
1295 -7.0401843898360503e-03 1.9616882706367934e-03 3.7587433794783692e-04
7 1.4374777959298769e-02 2.3033510508205058e-02 1.0313411094844989e-02
1102 3.4829750660723803e-03 1.7535061046292700e-03 -1.8477678654677970e-03
570 -3.0420964928252071e-03 -1.6437830176091912e-02 -4.3003720902012555e-03
1204 3.9689104989362352e-03 4.3923903594011594e-03 4.2424650467484436e-03
287 1.2620060081022883e-03 1.2195408404186119e-03 -2.3021089527672633e-03
739 2.5821507720459918e-02 1.6653337033688789e-02 -2.1725296599379632e-04
768 6.4051699182297766e-03 4.8739118731548348e-03 -1.4374140077529912e-02
326 4.3396335813760956e-03 -4.4239982423522530e-03 5.2500701621100319e-03
337 -2.2509908982304806e-02 -7.8502367643602930e-04 1.2460966850235065e-02
216 -4.5625861606762314e-03 -3.8894102544142096e-03 -1.9243178460962177e-03
1142 2.4519182960258679e-03 4.0772140261525246e-03 1.7123741200825145e-03
327 5.5944534735574598e-03 6.2653287568432178e-04 3.6120141614581322e-03
10 1.1777751815122623e-03 6.2870060363808067e-03 -2.2843758963079137e-03
915 6.8900627468565434e-03 -2.1620309647865515e-03 -4.2709648755831243e-04
211 1.4383039009518315e-03 -8.8022182014786694e-03 1.8222773736167704e-02
917 2.9263859129033131e-02 -1.1496942224509693e-02 2.0878370975012495e-02
677 7.3550033042723093e-03 -1.6404757254382416e-03 -7.4395005922571337e-04
778 1.2248959059060458e-02 6.9335576392790072e-03 1.0031115984681732e-02
294 4.9357422678396956e-03 -4.5087482239557003e-03 6.9128115340700444e-06
1133 6.8385533627913575e-03 3.0975297665264316e-03 -3.8021557946069920e-03
1035 -7.3730547426952234e-03 -3.0457221708491485e-04 -1.6547137184550586e-03
213 -4.3857996076883893e-03 2.0523367628318902e-03 1.0539270523473368e-03
710 -1.5572656905797510e-04 -1.0434076720831695e-02 -3.5706140696504644e-03
241 1.2868770707067630e-02 1.2554307163773674e-02 1.4292742696975074e-02
467 7.4492415647797461e-03 8.1898497908694887e-03 -1.5954446798978179e-02
689 -2.4402890446259845e-02 1.4740461065962615e-02 2.5221544425301202e-02
1175 2.9851906533481370e-04 -2.8619318381742417e-03 -5.9250026131968461e-03
5 2.6133551698329389e-03 -4.4752066573721314e-03 2.4281312501808389e-04
1297 -7.3556663122322343e-03 5.8155358502558761e-04 -3.5671912813544406e-03
911 -3.6111947289172290e-03 2.4363615757579788e-03 -1.1997860724171576e-03
913 -1.8054954326500013e-02 3.0277041921531429e-02 6.0224055714962459e-03
566 -1.5293921715012466e-02 5.2986292397844527e-03 9.6066289805630623e-04
468 -1.8489469827231788e-02 9.8540072093767465e-03 3.5575001129978752e-02
1200 9.0659812765663060e-04 3.8547560585726723e-03 8.0952117372705915e-03
771 4.3819770255092661e-03 4.0123923331887726e-03 -5.8844085325822438e-03
780 4.4111491793240639e-03 3.2724453849351243e-02 1.8017412807369904e-02
295 5.0023158737284813e-04 4.1727176525899086e-03 -4.9217781656858634e-03
684 2.5842021897125767e-03 3.4257376657182278e-03 -4.8548016822974023e-03
15 -7.9269686736128282e-03 -3.3027230029579828e-03 2.3348252532750286e-03
291 -1.8795728510858434e-03 6.0505011563537119e-03 -1.4628970774240274e-03
20 -2.3144626923389942e-02 -7.8877419883940213e-03 -5.9327737228964646e-03
919 2.6723391323094717e-03 2.6666893848003794e-03 5.6137833900671589e-03
802 1.4099627401977701e-04 1.2207649543042795e-03 -1.6636223481744871e-03
770 1.3008381485836841e-03 -7.7083199322555409e-03 2.6099767162510973e-02
16 3.1361997201008601e-03 -4.3946478514125453e-03 -3.2154209799010159e-03
1292 3.1347936624885149e-03 8.3914072975753533e-03 2.9969309530761584e-03
209 3.6646468427721439e-03 -7.2319443059637497e-03 1.3460526081342304e-03
571 2.6234617481033641e-03 -2.9629739188758778e-02 -1.2832029530743704e-02
912 2.9768980035901897e-03 1.4627994214185206e-04 -4.9825248718861600e-03
560 1.0364527391865264e-03 8.7185097505736112e-03 1.6974132211355691e-03
916 -4.1868011194198189e-02 -2.4289975320224286e-02 -8.2667855467801138e-04
1171 1.1716695204761014e-03 -2.9091885684520225e-03 8.8679547708329627e-04
735 -3.6587096857916578e-03 1.2211036918384160e-02 -4.3216430071178836e-03
1288 -2.5342854150778494e-04 9.7598767198067357e-04 -3.7297127527319181e-03
687 -5.4330352125953668e-03 1.6211074781338611e-02 -1.5189235899820221e-02
561 -3.1732736697527991e-03 -4.9598717296400205e-03 -1.0004068701397213e-02
1136 -3.1363892462358959e-04 3.1588461101174034e-03 -9.9821782612180294e-03
1135 -5.6815266526331967e-03 2.1534528434842379e-03 -1.3602219757936926e-03
1290 2.8110015307070892e-02 -9.3473107092555754e-03 -2.0287371197063316e-02
918 -5.9788949569123664e-03 -3.1732318965508802e-04 -2.4077497440211154e-03
572 1.1449098624761376e-02 4.1694792090183619e-03 4.7076640701534939e-04
922 -2.5498939806533449e-02 5.7085367348521836e-03 1.3580593123276937e-02
1138 -1.3111067414548845e-02 3.1613172347315247e-04 3.0120521315283953e-03
731 -7.1028201359851512e-03 -6.2134876602009306e-03 -2.9437601765120521e-03
779 6.7079932170226878e-03 -1.7631366573268335e-02 -3.4367507227432924e-03
685 -3.7638417164005708e-03 5.5005698182419220e-04 8.6457899836759559e-03
149 -7.7312163403610084e-04 1.6071120275754861e-02 -2.4990893351192707e-02
101 -5.7115913160577670e-03 -2.7661435350755824e-03 6.0305161730762424e-04
290 -2.4365006691310282e-03 -6.1149334156157540e-03 -6.8795822192228703e-03
147 3.1988873400372974e-03 4.4011366906855261e-03 -3.5406333167163160e-03
218 -1.0580735565827216e-02 -3.5080520748232368e-03 -2.3355563313756825e-03
1031 5.7278431665073863e-04 2.9082249680380894e-03 6.1476950093190827e-03
1294 -1.6366535199167408e-03 6.4073177223864831e-03 1.7931051388491496e-02
1296 -1.2356064954750343e-02 -3.4647067462763770e-04 4.8613709413740155e-03
914 -2.2731611891141910e-03 4.0217601876301719e-03 -6.0731225251829547e-03
1099 -1.2333622671037811e-02 3.6976796599910385e-02 8.9543601987541830e-03
734 -1.8763883240960921e-03 -1.4193584367647239e-02 -1.4547257781468127e-02
675 1.7077507846930455e-02 1.0346246199030832e-02 8.3364849048597842e-03
289 -2.4639135565747958e-02 -3.3197123240317275e-02 -2.9830725055393328e-02
688 -2.1002071313674497e-02 -1.9637956274290904e-03 -8.2281964809300476e-03
292 -7.3697264765099453e-03 -2.2853606308890727e-02 3.7324625578236252e-03
1293 3.1273990798814447e-03 4.9188806281999361e-03 1.6011061766444196e-02
1132 2.3335165451226570e-03 1.8720203611289606e-03 -4.1402051500663761e-03
334 -2.1766098783169456e-03 1.3282395348915811e-03 -6.1847893521271109e-03
776 -3.6584623358480719e-03 -6.8319552858353723e-04 2.0522698394758536e-03
806 5.7806779331948533e-04 -8.4735934042629892e-03 -1.5695401655065077e-03
923 -9.4627194664868887e-03 -1.9601080796747997e-02 -4.4270569264190278e-03
212 -4.2613168523777953e-03 5.5613710226058910e-03 -1.8249634403316741e-03
775 2.1911438788759590e-03 -4.0527502152599443e-03 2.6620307019346238e-03
298 1.0178525628069816e-02 3.4897056258524810e-03 2.5708143500011292e-02
805 -2.1291973076468167e-02 -9.8717674953327783e-03 1.2644298718513152e-03
565 8.8084110017429672e-03 -1.2702365673420575e-02 1.3727350943932227e-02
14 3.2705980026832946e-03 7.0067962868624971e-04 1.7859755413672143e-03
1206 -7.9676997807456504e-03 2.0596099148776927e-03 4.2956524931908888e-03
150 8.2546081415331828e-03 2.2233124435480093e-02 1.9513436747562892e-03
683 -1.5692525319770095e-02 8.7744454987513029e-03 -2.2672310309454557e-02
1143 2.7950369040513515e-02 -2.9454466689577682e-02 9.3653972569327174e-03
804 1.0167702854586044e-03 1.2447684356762677e-02 -4.5477106532106010e-03
1299 4.5620958665424224e-03 1.1381231729960467e-02 -5.1755579994868153e-03
299 -6.0788072397738729e-03 1.5788221536770543e-02 2.2986954352565085e-02
921 -7.8106690428320835e-03 1.2825131585617102e-02 -5.6201795662372146e-03
1139 2.1041546354095566e-03 3.3672197078515951e-04 3.9926929099036498e-03
297 -7.8105440885828025e-03 6.2143238874202457e-03 5.9190866673467619e-04
1137 2.4237217367266001e-02 -8.9090331078921729e-03 3.3239966783038991e-02
769 4.9807462885712826e-03 -3.9320290507494238e-03 1.9151160802938951e-03
686 -2.2886484769368549e-04 6.4673373077239332e-03 -3.6403527657779801e-04
799 3.0284683745530165e-02 6.0906747128681559e-03 -1.9163177342020186e-02
466 1.6602327059594343e-02 5.9130749048808854e-03 1.6593397402962937e-02
1140 2.1038228353103348e-03 -7.9433468358512428e-03 -3.4525074355634768e-03
774 -1.7398856171068521e-02 -1.6740756142002507e-03 2.4353717830822262e-03
680 4.7405693281173519e-03 -2.5317427875714200e-03 -1.5008167895666051e-03
240 -6.9418947324369753e-03 1.2677102412316886e-02 5.0699954876216678e-03
1144 -7.4996627152585475e-03 -1.3175602965606369e-03 4.9349951757154909e-04
773 -1.8387785107166761e-03 -2.0391596398855866e-02 4.7101169442685068e-04
682 -1.1595002255038095e-02 8.1157100812711928e-03 1.2538331162618578e-02
1291 3.7763291324167700e-03 1.8783299637284672e-03 7.9549914554622250e-03
777 4.3463806818994213e-04 -4.6205005642449629e-03 -4.2532975881283677e-03
772 4.4078856266716098e-03 -6.3526028747197217e-03 1.5540161752014400e-03
1176 2.9251216709185791e-03 4.7518135562582007e-03 1.9540054387008694e-02
681 -3.0936145896673629e-03 1.7376339377481868e-03 -3.7176669453796610e-03
1182 -1.0251038925038944e-02 -1.8339958195721543e-02 -2.1543996056564239e-02
293 -1.3612365118045654e-02 -5.4773579289103440e-03 -7.4753787404111000e-03
144 4.6387820883716652e-03 3.0734954372169830e-03 2.2998320799020924e-04
1264 -2.8569931553162837e-03 -9.5928358953675623e-03 -1.3819164239322306e-03
288 3.6789349472417751e-03 6.7452556220454337e-03 -1.8443702187218261e-02
331 3.7504281783774123e-03 -5.4506075720802431e-03 3.4919632680224465e-03
1289 1.5679567004535030e-03 -3.7165102388953368e-03 1.1611450805633886e-03
4 4.4014914158226629e-04 -2.0778588118721022e-03 -1.1144288029783806e-04
679 1.3891070341913036e-02 -1.8228129397189308e-02 1.2603124002783156e-02
737 3.4565824990426047e-03 -2.3401261583112579e-03 2.6396038981038004e-03
1 3.7553002408645592e-03 1.1585068902698740e-03 5.3988575369629845e-03
1037 -2.9931604888759053e-04 1.2298304376012023e-02 4.9445516652977320e-03
6 -1.0020002944930396e-03 -5.9663370003703491e-03 2.7572478290495705e-02
338 -5.0051482920201815e-03 -1.2753188752878815e-02 -2.3113271219537330e-02
336 1.0081833586636861e-02 4.6957842976755343e-02 -8.1442686477866105e-03
464 9.7781741746702754e-03 -5.0220036570562286e-03 6.8232032956214222e-03
330 -1.7881740642717641e-03 -1.8337965270154584e-03 7.9975971300855174e-03
148 2.1511719421914701e-03 6.0926927589988467e-03 -7.1208616921921016e-04
95 -1.7221318948600775e-03 6.2403172105118115e-03 -1.6458939843401958e-03
1209 -9.8239232239001519e-03 -2.3813287394696225e-03 1.2459018007938511e-02
235 8.1964068145649419e-05 2.6607584862151233e-03 1.1426742110911785e-02
1201 -1.5701573560113298e-03 -4.4184003377576266e-04 1.0845443322092295e-03
714 3.9788913561448992e-03 -5.6267704001512417e-03 2.1721870902953751e-02
704 4.0253516231214996e-03 2.5437485514995840e-03 -3.1667677484341111e-03
239 1.9273382663246106e-03 -1.2444302108918081e-03 2.9104433593117756e-03
1174 3.5102529943842266e-03 -9.5281075357148519e-03 -2.6313480892271976e-03
18 -9.4480661018076677e-04 5.2602154505453748e-03 2.3854380300036586e-03
215 2.4865311854392190e-02 -1.5398634099091625e-02 -1.3925865247115710e-03
214 4.4090403650208464e-03 2.8815346046897977e-02 -1.5738622868388515e-02
25 -3.2291649996089503e-04 -1.1553786284816360e-02 1.5058768822660870e-02
19 -2.2030110497919353e-03 4.5851757297263969e-03 1.5122323343508517e-02
1032 1.3493172177124345e-03 -6.1457694035724924e-04 -1.9915699074480181e-03
711 1.2430870804347458e-03 6.8011878265532653e-03 -1.4409366631678562e-02
730 -2.6655086139823998e-05 -2.8217255654732097e-03 3.3241739068928036e-03
715 2.7426361784932542e-03 7.9140499267944826e-03 -3.7865463331069917e-02
808 3.3648933906272696e-03 4.1258602616229085e-03 -6.0700257719024237e-03
1025 -1.6813529962072533e-02 -6.0008934505662087e-03 -3.8493896981362942e-02
1016 -1.0300840839227146e-03 1.5901089277350125e-03 -1.3184776455785361e-02
670 -2.3697060797510040e-02 9.3161081380723522e-03 2.1794951554237461e-02
1022 -7.8183822877412757e-03 5.8798675042133659e-03 8.7917172049883779e-03
76 2.6126284074082670e-02 -1.1809503785523180e-02 1.4769675588969165e-02
1007 -4.4587484745455376e-03 2.0193603937708037e-02 -2.4575380139270124e-02
853 -2.8861596650195426e-03 -5.4204091861658468e-03 -1.8604935262243640e-03
408 1.2341879779616571e-03 6.2113435030968049e-03 -2.1587302514445260e-03
1015 -3.7608626969425904e-04 3.2233074922303753e-03 -7.1978708382254702e-03
546 2.1871462255115746e-02 -4.1917830235648082e-03 1.4806286448206600e-02
115 -8.1416270531583131e-03 -2.5757690952480681e-02 2.3072738009994050e-04
415 7.0307393526940882e-04 -3.1763549201447240e-03 1.9691326881400854e-02
411 -8.2532610559053875e-03 -8.9826097999215352e-04 -1.7498708441503696e-03
108 3.9638050715025425e-03 -1.5225504169408834e-03 1.3785464528646936e-04
1062 4.0406519368790163e-03 -3.2247918366201307e-03 3.9481341015836489e-04
388 3.4004303547151143e-02 8.6238539220071034e-03 1.1227602225614882e-02
939 4.4507960034362339e-02 -2.5411495594735546e-03 -1.5399358023133195e-02
811 8.7641415414675683e-03 -6.7635417929650169e-04 4.6346855278624468e-03
406 -1.3064312179939794e-02 -7.2720869069751418e-04 -9.8364628256224895e-03
405 1.6588279800390843e-03 5.2283479713260720e-03 -1.2870620015865133e-03
257 1.3046018984857058e-03 1.9446228533573956e-03 -6.6429865609404382e-03
66 1.2345269036350668e-05 -1.9446003283719595e-03 7.3901629813218576e-03
855 7.4961875056619894e-03 2.3688909059689307e-03 -2.6985110166976526e-03
1157 -1.8032927661576843e-02 -1.1383661662564649e-02 -1.1633219053451800e-02
348 -4.3270021189237224e-03 -6.6926497393022732e-03 -4.4679540526722976e-03
438 2.2648329759913759e-03 4.0602181632265295e-03 -4.2631552607015084e-03
968 -1.0966231848979047e-02 1.4706310383467262e-02 -7.3300870450290394e-03
71 1.6443646748204060e-02 2.7313630549206849e-02 2.9788693067508069e-03
1057 6.0383843592849455e-03 8.7568586803212401e-04 5.5907767878245291e-03
1092 -1.7565779730841860e-03 1.8837182205857897e-05 4.8342389751500027e-03
943 1.7931107797207677e-02 3.1009943338212324e-02 1.8496918571282103e-03
503 2.4346729635069311e-03 -3.7337041993486524e-04 -9.5686383721903224e-04
660 1.5841920570618016e-03 2.5722569517715077e-03 -2.8862198622206774e-03
1055 -7.7092748749427989e-04 1.7523020105908004e-03 -1.5370933915287660e-03
1017 -2.0222340898688441e-02 2.1141214925970226e-02 5.1759386279522375e-02
1087 3.6352559402006331e-03 3.0835371681766635e-03 5.6965640882042996e-04
542 -6.5993325417488761e-03 9.4927735513728791e-03 -2.8326403708826874e-03
412 -2.3389107252989130e-03 1.0506904391708635e-03 -5.8733209647514545e-03
849 -6.8827311950674149e-03 -4.4189830944093098e-03 1.3334695479194757e-03
69 1.0284900082070201e-03 2.2641371301514151e-03 4.2768525354811397e-03
852 -2.5849445517538160e-02 6.2789482730871253e-03 4.7664981087343636e-03
856 -9.5467927559586326e-03 -1.0776462052241131e-03 -1.9616554955214232e-02
67 -2.3273480630319854e-04 6.4773633721341609e-05 1.4900415264760560e-03
409 -2.3317761183454445e-02 -6.5901805679532332e-03 2.4346897366837986e-02
1006 6.2102035161693556e-03 2.4903702984228810e-03 -1.5606884988561473e-03
389 3.1858383252591693e-03 4.9032927610239679e-03 1.0703134856618885e-02
414 -9.8231164757331384e-03 -1.5041676524496389e-02 -1.1166452421700786e-02
850 -2.8879231429478941e-03 3.5374777725422557e-03 -5.6007662067182745e-03
545 -2.7922857713002694e-02 -2.9556463157476556e-03 8.7788699221565299e-03
407 -1.8800707250452942e-03 -4.1357571722505145e-03 -2.2733191869239999e-03
1020 2.8802816853306019e-03 -1.3094080086717499e-03 -1.1085313272561088e-02
1002 -1.5612093849582073e-03 1.9819302326061052e-03 -1.4178836593552225e-03
544 8.5084832906462769e-03 2.7003276779012611e-02 8.1381967923401018e-03
1082 1.6287997562281661e-02 -7.2217261191904365e-03 -1.8595338626938979e-02
343 2.6122288232432235e-03 -3.4059289339491688e-03 -1.7948006867595525e-03
441 1.4075477414707048e-02 -1.4786589671536617e-02 1.2767387987624342e-02
539 -1.0230684564991057e-03 9.2086973290056596e-03 8.5405098453390869e-03
1027 5.5527592293637060e-03 1.9788665018060109e-02 -2.5648319605513038e-02
854 2.6466766281186432e-03 6.8861932731783294e-03 3.6081276319006985e-03
1091 5.5609051804228508e-03 -1.3561555612924393e-02 -1.7635425525079611e-02
1090 9.9294745686362863e-03 -2.4341658398424525e-02 -1.7622139094682087e-02
505 7.7607487812365299e-03 -7.9871857130730042e-03 3.1609066535056617e-03
1088 9.7360791758178240e-04 -5.3482136576245166e-03 -8.9332906489926153e-04
1021 -1.3702826211815466e-02 -2.0004297398074779e-02 4.6116427693404108e-03
1026 1.5474894253233925e-02 7.5870685693720285e-03 -1.2732398847101417e-02
410 -7.1540125314281319e-04 1.5212064384382825e-02 -1.7192025966998009e-02
807 2.9935215850395110e-03 2.5613026136415357e-03 -2.9164509978305202e-03
937 1.2352021759451880e-03 -1.1164899463408089e-03 5.7703614034377961e-03
814 -4.3200976092543390e-03 2.4585352836965600e-04 -3.9850859718069381e-03
817 2.3034300976816295e-02 -1.7091807872624647e-02 3.0698219911159320e-02
105 3.3050012493137299e-03 2.6044073081192463e-03 -3.3484850300328889e-03
107 3.4739591250454754e-02 3.2661772955586456e-02 1.1771190706942863e-02
1061 4.7363580716820486e-04 -1.8759494603077533e-03 -2.7776404253098690e-03
1003 2.7598302653546471e-03 -5.6110791631568003e-03 8.5655988538707421e-04
1008 -2.9098308391541681e-02 4.3565555344280789e-03 -2.6315109960426908e-02
114 2.6177216271669197e-04 1.5797497187234994e-03 -5.1571519979363486e-03
111 -1.0301409701950421e-02 2.2976689014737952e-02 -6.8090749702246837e-05
491 7.2868056939373257e-04 -3.7721293685632827e-03 6.2573172092341856e-03
106 -1.1640986207775701e-03 1.8908385655085869e-03 -1.8574692772876397e-03
1014 -2.1742578683830387e-02 8.6852632932219453e-03 2.6538997997001979e-02
1080 9.4795929626910226e-03 -2.5221987004051065e-03 1.4241261762748905e-03
342 2.7114749516917389e-06 2.6560091111131026e-04 2.8155268137032047e-03
72 -3.0406943098557140e-02 -2.9625347829765378e-02 -1.7520247477483895e-02
847 -2.4666523107927879e-03 3.7926506696940240e-04 4.4537883879535297e-03
813 -9.8413669934622455e-03 2.2346381904246662e-02 -1.6239179954007196e-02
386 4.4028373018194815e-03 -4.9331983316938579e-03 -2.4270497352935662e-03
857 5.9916608455985974e-03 -1.1379089183632641e-02 -9.0924791546160722e-03
78 -1.5765719246630457e-02 2.8392432210132008e-03 8.3037364035632808e-03
68 -3.4844519467095415e-02 2.6561538003274793e-02 -5.3293172633595495e-03
940 -9.1347018116661534e-04 -1.2496235682799390e-03 -1.9991893680501851e-03
116 2.7214222942835556e-02 3.2775321655742792e-03 -1.5756897197149223e-02
413 9.3357829815453319e-03 -1.3849207074274341e-03 -3.9497770136492664e-03
810 -2.0161550870318456e-03 -6.9566771404875275e-03 -1.8042766800052421e-03
816 -4.4474221790597344e-03 -4.6518762065637263e-03 -6.3744054185614733e-03
1019 2.6509086275720954e-03 5.2206096755868831e-04 3.6836723884495575e-03
362 -2.7553788865035834e-02 -5.8448523807688507e-03 -6.7457012625843117e-03
346 1.6144336506768509e-03 3.3771943226902665e-03 4.5546583347684313e-03
1018 -7.7559409794439758e-03 -5.6463919157887423e-03 7.1724159936453877e-04
416 -3.0585100672522385e-02 -1.5866881119194348e-02 -1.9386284893046071e-02
74 -2.6186152223651275e-03 5.9775760075434937e-03 1.4863601176695724e-03
440 7.7502600909687830e-03 -4.1091725454947495e-03 3.3681157225925241e-03
486 6.9301308859291803e-03 -3.9612036473653011e-03 4.0439865014518586e-03
846 7.2972207218421009e-03 7.3248647518665954e-03 -6.2389748430448323e-03
858 -1.8686737570209294e-03 -3.3719290983014955e-03 -2.2790115267529713e-02
1066 -2.8796572315714624e-03 -2.3557006438349359e-02 2.1576502660337216e-02
848 -5.7963136495815283e-03 -3.2788050166524280e-02 1.6774348610563934e-02
117 2.9823442471669997e-02 3.6774146400569280e-03 8.2542413339757557e-03
753 1.0361735776960038e-02 1.6371094857149215e-02 -5.3974865050880963e-02
812 -1.3108557355228805e-02 -1.7428513534847589e-02 -2.6238705274494834e-02
377 -1.6242630318855568e-02 -5.9064868522644542e-03 -3.2845526197673440e-02
339 6.9688105804467252e-03 -2.8569005837138028e-04 -3.0496731425430331e-03
1012 1.2131280004039045e-03 6.1034301036955200e-03 1.2442251445741364e-02
1011 -6.5444274373511946e-03 -2.4967073800166713e-03 1.2870191619589603e-03
540 2.3545809927299258e-03 -2.1927840931707611e-02 -7.4363507650308525e-03
944 -1.2616969488215004e-02 4.3308048269058708e-03 1.0667000037979254e-03
654 -6.7852947357169876e-04 5.6660532753066905e-03 1.0018673545867060e-03
1153 -4.4258280299904187e-03 2.9161833604362843e-03 4.4612453075566424e-03
259 2.2449631442202723e-02 1.2963852992961641e-02 1.0821627661551014e-03
113 9.0690185405894585e-04 5.8414268389466719e-03 2.9441101459832023e-03
946 -9.3476325910409335e-04 5.4524185067345195e-03 1.6542955352539250e-03
110 4.4873439896050164e-03 5.2778600760076720e-03 -1.0408126399226315e-02
809 7.7394382336435372e-03 -2.3107770783470233e-02 -1.6290840847584601e-02
1050 1.5527512955395128e-02 5.0869213621861148e-03 -5.1438144349982649e-03
404 -4.1882817165930985e-03 -3.4336473671746893e-03 -5.2907009962845661e-04
1013 -3.5651480665785065e-02 2.1264591505194431e-02 -1.6710196093996425e-02
1004 -5.6776067425847181e-04 9.8744178193687950e-03 -2.2392475258666687e-02
109 -1.8587355780165186e-03 -1.3222033272532079e-03 -3.2061388274518972e-03
1005 5.1923823860017052e-03 -2.1626931374014728e-03 -3.9900876055481843e-03
112 -2.4891123977151906e-03 3.0044517332498640e-03 -6.8958692532396209e-03
73 2.6957478202317550e-03 -7.3992893465074311e-03 2.6588516009358656e-03
851 -1.1481002625269375e-03 -2.5068659395584666e-02 -3.6592292329079771e-03
77 -9.9591883149349591e-03 -1.5162491535936282e-02 2.1917931959841659e-02
938 -5.6816693402542105e-03 4.2261944572418390e-03 -5.3389325717208141e-03
1081 4.0617831928527696e-03 -7.1270134653659209e-03 4.1345570419915852e-03
370 -1.1000170222843714e-02 3.1075769743813368e-02 1.6199484502090938e-02
70 2.0114892538462828e-04 -3.6159294405935273e-03 -4.2499443262935255e-03
390 -7.6690831768839512e-03 -1.8794380544086893e-04 -1.3309559558335167e-02
1010 -6.6410586483718458e-03 -1.5733921599553008e-03 -6.7480453166662759e-03
1023 5.7597061592546605e-03 3.9835123085139052e-03 1.0358112435012740e-03
941 -2.2066648569049694e-03 -5.9069980758273003e-03 -2.9555611560902768e-03
962 1.9248832248707499e-02 -1.8502941731235314e-02 -1.3437864465445447e-02
534 -1.3562258509255085e-02 -3.6772224253003231e-03 -3.3049250706343857e-03
506 -1.3593808220649223e-02 2.5439917261612902e-03 3.4215511129484087e-02
1064 -3.1087356378182052e-02 1.5227216953157888e-02 -7.9965182583033798e-03
1009 -3.8866469033616391e-03 8.9050650350738824e-04 -6.3579248410924293e-03
1083 4.3248153033243163e-03 -3.9305720596428985e-03 3.4146306906145904e-03
478 2.7804284632649704e-03 5.2443588123960577e-03 7.3020314434630385e-03
373 2.0370882343366909e-03 7.8801379806419502e-03 -7.4555438751845087e-04
1155 -2.9152778166187440e-02 2.3960092495934959e-02 3.5632638404906108e-03
497 -3.0925534783820933e-02 6.7064601636513859e-03 -4.5469594441684700e-03
1063 1.6747450978165537e-03 1.6279991564692505e-03 2.0538220022457538e-03
1051 2.4209446753300900e-02 -5.4330677825520420e-03 1.2233328666661028e-02
584 -4.9624918243674279e-03 -1.4476386197412957e-02 -4.2311245351160350e-03
1053 -1.8755611812188249e-02 -2.4308071943276097e-02 3.7410207161703160e-03
1156 4.9853338414915212e-03 -1.9503632311363130e-02 -1.6918223931484070e-02
61 -3.2489787786636992e-04 1.2277183236009328e-03 5.9814138822060631e-03
185 2.8529646379784053e-03 -1.2820717199193679e-03 8.8421663572168831e-03
1149 4.4323496819144151e-03 -3.1785680363780756e-03 1.0339776486933271e-03
184 -1.0489461080145630e-03 -7.5669335965291966e-04 3.5804020690561864e-03
1146 -2.6679323182078832e-03 1.2518065515881014e-03 -1.5668111066631722e-03
743 -5.0235645220893226e-03 8.9590104829672772e-03 -2.2337944478230207e-03
569 1.8158162876364720e-03 -7.1789955364693998e-03 -5.3915609554810373e-03
1226 3.0533775378193914e-03 2.3796533758556676e-03 -1.3506262352420476e-03
1084 1.3908092224417384e-02 -3.3517939214001429e-03 -2.8495966640628900e-03
754 8.8260285844273308e-03 7.6301236219434394e-03 -1.9316033763636432e-02
40 -3.7047677284848305e-03 -3.1601076099620610e-03 7.9945013871219849e-03
1074 -2.1258024976214284e-03 3.5135970972632108e-03 2.0176073448455651e-03
1231 -6.1060805314269836e-04 4.4445501124704585e-03 8.5128230381373098e-04
751 5.6433572582925392e-03 7.1903532399152092e-03 -5.8556097645951887e-03
785 1.4241649973666269e-03 -1.9524319881981339e-03 2.7644868615770563e-03
189 1.6296384402111414e-02 1.2589333353306987e-02 1.4386777975214668e-02
42 3.6504582006304756e-02 8.9184613329841827e-03 1.2331634931337942e-02
1043 -1.0984908348928754e-02 -3.0596717098664546e-03 -4.3597944324688751e-03
1049 -6.6248351967260555e-03 -6.4092848873768156e-03 6.2255973696887417e-03
564 1.9522448070254481e-03 -3.7211289000769845e-03 6.8114207217739005e-03
760 -2.1551633915241612e-02 6.8326768194867146e-04 7.5667809727025907e-03
1233 4.8077410005406196e-03 1.0663016158636371e-02 1.4077590541650210e-02
620 -1.3149748551520223e-03 -3.7085798319077272e-03 1.9084143457693639e-03
49 8.0436235539620739e-03 -3.9481581674344606e-04 -4.3292123910015359e-04
963 4.0872077120452689e-03 2.7932289597053495e-03 1.3151782085059295e-02
46 -6.6808275490427378e-03 2.9795317941438089e-02 9.7323543528661481e-03
552 1.3404371690167866e-02 2.8442920840436206e-03 8.4250563669284757e-03
746 -5.2002558808206386e-03 -3.2802778785566114e-03 4.2599836237231679e-03
985 -2.5445739403695593e-04 -2.1365401638015506e-03 -6.8720071521687050e-03
190 -5.5204276789997354e-03 -3.6531269947447060e-04 3.2264150498657282e-04
580 -5.3785220014702382e-03 1.6004668698973120e-03 6.2628714299032872e-03
949 7.3033743320867059e-03 -1.8498583166292125e-02 -1.5608975595707286e-02
789 1.0040248409476331e-02 -2.4504320148036060e-03 -3.7422885773458156e-03
44 -1.8883719714432264e-03 -1.8451694907706132e-03 1.4466249952390965e-03
1228 6.5776985399138824e-04 -1.1176625326134641e-02 9.6175480159719790e-03
1273 7.3284712268334451e-04 6.1604973660781626e-03 1.9385563035785439e-02
51 -2.2180246888823187e-04 1.3620075563772262e-02 9.3573492200894597e-03
1227 -3.0902734007040916e-03 3.2992909216589192e-03 -2.9704077180552043e-03
1122 -1.5713900882937345e-03 2.4881157284671433e-03 7.6513946840892511e-03
1047 -1.2764522147646696e-02 4.3807744731274779e-02 1.0169189669312894e-02
1154 8.2183861079482160e-04 -8.3638551085023704e-04 1.3560040903362427e-03
64 1.9578238645657400e-02 -3.0976763943751703e-03 1.2221512447214792e-02
1224 -1.7789013357389903e-03 2.2801762315462371e-03 1.7896410489916799e-03
1225 6.5174628912974446e-03 1.4364650976524875e-03 -1.3781617557466716e-02
979 -3.3401345569523144e-03 4.3082372281796439e-03 4.6480268207214894e-03
980 1.6262931538996021e-03 -3.1918104419944538e-03 -3.8482982380607066e-03
948 1.3581240076547239e-02 3.2286613896160134e-03 5.0012638566925595e-03
585 -1.0187131398977584e-02 -1.3497571002770728e-02 -5.8175149802606688e-03
623 2.8104668134804115e-02 -6.6498717428156587e-03 2.3212300871459694e-02
983 4.8674538040702330e-03 -1.3963010110246905e-03 3.1358715629571589e-03
52 4.5082332358429974e-03 -6.5755100967100624e-03 2.4263121040433842e-02
787 1.4450134216625705e-02 6.1052909757889941e-03 -1.1183257832349818e-02
786 8.2859870524536351e-03 -2.0599324180549839e-03 1.1202194275936559e-02
45 -1.8971355962741430e-02 6.4073274995062783e-03 1.5102054299307131e-02
1067 9.6574388586928937e-03 1.9772416538995693e-03 -2.3461452277570515e-03
1078 1.0928390269977776e-02 7.6712309417784688e-03 1.0904678666096096e-02
758 -6.8858394918892732e-04 -8.4204381320389404e-05 1.2534789122138133e-03
188 1.2732980623561933e-02 1.8415883764495943e-02 5.4765281158652476e-03
574 -3.5077080179236620e-04 3.5141098716375044e-03 -9.7280092758297940e-03
764 4.0266330247260831e-03 -8.8212816917178317e-04 1.0921164159765340e-02
579 3.5031351738334594e-03 1.3383508159259580e-02 2.3064664779216284e-02
1121 -2.6539061890591284e-02 4.1688921214455762e-03 1.5719992123950800e-02
788 -3.7433041073058225e-03 -3.6168357385930158e-03 -1.6524669363413651e-03
1151 1.3013017004737559e-02 -1.7532147114245906e-02 1.3216540345357878e-02
783 -1.1635964530848749e-02 2.6191751721923780e-03 -3.3611650403196323e-02
48 2.8852995188823694e-03 -5.4286529518181919e-03 1.7231923338714887e-04
745 -8.7248835147366282e-04 -3.9461261713598320e-03 -1.9237237741741313e-03
749 5.4319948026720943e-04 -1.8694700528210668e-03 6.5851933803189305e-03
1072 1.9082903535392454e-02 5.1386370406337947e-03 -1.8911514266614721e-02
1230 1.7089942243577023e-03 4.3067525715038092e-03 -1.2784768359943799e-04
55 -1.7784117120296827e-02 2.7730125976017234e-03 -4.3483743139449200e-04
964 -5.4865825806196819e-03 -5.6259886082267001e-03 5.4484156670364554e-03
1150 2.4902768132832386e-02 6.9367693298535670e-03 -3.2375018405078219e-02
1223 -2.4259724012576180e-03 -7.8175503848599871e-03 -9.1086144731990747e-03
575 1.2557658687649973e-02 -2.8135643572231874e-03 -2.5761590162061674e-02
782 -2.6886707296276224e-03 7.1889265881604236e-04 -2.6277034210072272e-03
621 -6.8646114712158290e-03 -6.2154174870709417e-03 3.0734332176807857e-03
556 -1.3064148341544162e-03 2.2268789300768010e-03 2.1690517482650554e-03
781 1.0074839910025351e-02 -2.0126845385032609e-03 -4.4293307961453124e-03
195 -3.8153759179661580e-02 1.8598860609260640e-02 -1.2538335023675963e-02
47 1.1060758045766987e-03 -1.1033519905208943e-03 5.1015581408892716e-03
41 -1.7560841774636655e-03 -5.1900954628265996e-03 -6.6131739608150967e-03
187 6.9259297453098312e-03 -3.8826975651954079e-03 -3.0216625698175257e-03
573 -2.9122577088078359e-03 2.1532112234891212e-03 -3.3922809923299744e-03
186 5.1371573223056516e-03 -5.3059041630509462e-04 6.9040278952596458e-04
1232 4.8997538394991401e-03 -1.9769005178232025e-03 1.0994032379774647e-02
747 2.5230950415520519e-02 4.5938619644111129e-03 2.5233268178571858e-02
183 -1.9377571189372268e-03 -4.1950764885382772e-04 -1.6107158981186938e-03
57 2.5228493501289638e-03 2.0465247717028418e-04 6.5314949680448991e-03
50 -2.7897428797442520e-02 -1.3433776640463302e-02 1.3483667716744833e-02
790 -2.7512793238699076e-03 -2.5589613930497292e-05 1.2249811060756118e-03
1234 -2.2909404245810026e-02 -4.2120569117511403e-03 2.0781856956364399e-02
1145 -4.1728846652245265e-03 -7.8994427889365233e-03 -1.4066995869255586e-02
43 -1.1030399806907574e-03 -1.3194739112045487e-03 2.0588276043105509e-03
193 1.2727152839268775e-03 2.8860182592565665e-03 1.0653793821245356e-02
59 -1.8427067668601121e-02 3.0820409323062837e-02 1.2489167970038188e-02
755 -1.0468464148460004e-03 -1.7652954980475839e-03 2.6277250597619550e-03
581 -2.8913911899974333e-03 2.1335230633055073e-04 -2.9442842981727917e-03
550 5.3755348905493664e-03 -4.3521118398763764e-03 -6.8645016873949787e-04
1052 3.3562251602739304e-03 -1.1498435614164863e-02 1.8650819519171039e-02
1071 -3.7685431115706510e-04 8.3192975479723125e-04 5.5597266364514394e-03
578 -2.1758892599719287e-02 -2.7485658433622460e-02 1.1782363695794086e-02
583 2.9394308436115440e-02 -7.5894216729465369e-03 -2.1565261180248648e-02
784 3.2479479716190458e-03 1.5449179742533970e-03 -1.0058168143181128e-03
613 -3.9283077271142983e-03 -5.5129739190317600e-04 9.6042423886933553e-04
1148 3.0880159270120400e-03 3.6706661421966643e-04 1.0128997923343388e-03
793 -1.0393212152202388e-02 -1.4666365389882384e-02 1.4231818963221312e-02
742 8.0123477225591318e-03 -1.1193518863017186e-03 2.7650193976700810e-03
761 2.6806885746049045e-03 3.4154774568311958e-03 -2.4672580968901816e-02
791 6.5864681031189568e-03 -7.4652795309486548e-03 7.8376687344741749e-03
194 -1.7498639294763998e-02 -2.9605051968093527e-03 1.4952755513877635e-02
553 -1.2645116166763448e-02 1.3309680118051611e-02 1.0257589309585965e-02
1075 6.6023099133001610e-03 1.3012998752504347e-03 -7.0234104499097686e-04
191 8.3383139003823398e-03 3.8423725190999585e-03 2.4952860478297399e-03
1077 -2.3576725089836340e-02 9.5571782640922996e-03 5.3225870217151819e-03
622 9.6869294189754710e-03 -1.4552649257602975e-02 -4.2157547537288315e-03
1235 -7.3334830833644378e-03 -4.2936471659245622e-04 -9.7900885585189210e-03
1120 1.1558073931575504e-03 -4.3765435646567234e-03 9.2492884775653196e-04
530 -4.4394306513825168e-03 -1.3325233878972314e-03 9.4220258746650475e-04
1041 7.2517018273774922e-04 -2.3022052188091946e-03 1.7614894747747358e-03
1046 1.0820416540289026e-02 2.4751701262625586e-03 1.0834945586541619e-02
1048 -2.7971383896008201e-03 -7.5353817518396650e-04 2.1522802044066885e-03
1068 -2.9135754134718139e-03 -4.6031194423156851e-03 5.6494358501539164e-03
58 9.7162614339593775e-03 -8.3534582041635448e-03 2.0070668092587438e-02
945 2.3230355523487824e-03 -5.6322252668996112e-03 -2.3642240429666518e-03
1042 -2.8958656088253678e-03 2.7289049413706332e-03 -1.7976955709653707e-03
179 3.5056315896964344e-03 -7.0948123952005915e-04 -4.8471019842685863e-03
947 9.1627701453895916e-03 2.7795310174511711e-02 -2.1071221825597754e-02
792 -1.0269283620135553e-03 -1.7578287702452552e-02 -4.4441735504890745e-03
54 7.9437394260308190e-05 -3.3277922319405694e-04 9.5727581078179462e-03
459 -3.0183885268893038e-03 -3.2096083358249101e-03 5.4085811208879767e-03
759 2.8484173641418814e-03 1.5801120370273435e-03 1.9914819323924911e-03
1089 7.5280774013846861e-04 -3.0066327383454120e-04 -2.8770921112643696e-03
969 3.6207031844412247e-03 -1.7126201574357348e-03 -2.1325062696305294e-05
1229 3.6954375343863609e-02 1.9647447049349342e-02 -2.3940257792505065e-02
465 -5.9478441584144290e-03 -4.1393202775489310e-03 2.7892922838836810e-03
1070 -3.6822246477218792e-03 -3.5112078154457232e-03 -7.2614482295869217e-03
563 1.8297702606804270e-03 -2.7656473767489651e-04 -7.0896304993623392e-03
551 2.7387434513727210e-03 -4.5799365073812322e-03 8.2521562780824252e-03
748 -1.3016344370207721e-02 -2.3100386813329363e-02 1.3879386941696015e-02
53 2.3889191477935133e-03 1.0967896709546038e-02 -6.9991068524133532e-03
1128 6.1920486303526489e-03 -2.9367787133944426e-03 -7.8270248244792975e-03
744 -1.3313218018060442e-02 -6.0188158087262278e-03 -9.6024159671963712e-03
1126 -6.3075464497363313e-03 -3.5687656993114401e-03 6.2987464303099058e-03
1069 -1.2353004821430084e-03 -5.2328465957122256e-04 -1.5436581970589985e-03
1266 3.8398803495507186e-04 3.1401269653076975e-03 -1.2192728438634199e-03
1073 -1.0720949097192040e-02 1.2918594152445970e-03 -8.8672642793163718e-03
965 1.8924440587938487e-02 7.8881797863814794e-03 2.5109298864500612e-03
1125 -8.2724453154098838e-03 7.0460805037883909e-03 -2.4029637749753998e-02
750 -1.9036541083681129e-03 4.7017590660778589e-04 -5.8728687672440659e-03
547 -9.4843956177882351e-03 -9.8105885275929800e-04 -5.7306556448346192e-03
624 3.2134883211946838e-02 1.4880026298213916e-02 -2.4766500172357729e-02
752 -1.6000498441651363e-02 1.9525070432881837e-02 2.2215725242449625e-02
1085 -1.2636120387228124e-04 -3.1130076446654519e-02 1.8655389869486706e-02
557 2.3387075467493899e-03 -1.9941071803505652e-02 -4.4102206104181821e-02
1123 -6.5446186151569778e-03 1.0181028090171112e-03 6.5031133908963557e-03
460 -1.2615424907934422e-03 1.0756596941371190e-03 7.0790896140890064e-03
192 6.4635780101192138e-03 7.5429938820409667e-03 1.1988974362938259e-02
619 -2.8822268064965044e-03 -4.6731658976751906e-04 -1.9227571549204714e-03
328 -7.9378013047714767e-03 -1.2251934606909652e-02 1.0060826487228071e-02
554 -1.2508126076504202e-03 -4.2160824428206642e-03 3.2730989950185155e-04
63 1.0600499753995397e-02 2.4824679170176670e-02 -1.6776114360094151e-02
219 -3.5890228439756040e-02 9.0465106229905990e-03 8.1169556719339481e-03
1045 1.0365407133394952e-03 7.8724779222621947e-03 2.4301251414676085e-03
942 1.4823794056696440e-03 -2.9475345251440341e-02 1.5403834197676676e-04
1079 -3.6194183766232332e-02 1.7679945451861658e-02 -2.0113010542087903e-02
1044 1.8215704303799079e-03 -8.5169949835026612e-03 2.7224138267241413e-03
60 3.9685226020462518e-03 -3.0150290371133838e-03 9.5775251742363890e-05
56 1.2463484724555328e-03 6.9628772675307113e-03 7.1045105054301227e-03
1086 5.8083620692905942e-03 -7.0660339797606918e-04 -6.4806170413006115e-03
229 1.7160455446558671e-03 1.4298099977378618e-04 -6.4140399316943153e-03
587 -2.8948889116974359e-04 6.2281382290987749e-03 -1.5629519308415904e-03
365 9.5796872618582590e-03 3.7381346651508616e-03 -6.1763492776336663e-03
379 -6.8214387828180499e-03 -4.4166768145761162e-03 3.2311480587260766e-03
696 -1.1355199894867341e-03 1.2515313803898615e-03 -3.0775151755908736e-02
305 8.5165349496974276e-03 -2.2050237680178202e-02 -2.6637476128757334e-03
1065 -1.4452968443057235e-02 -2.1003488180018841e-02 1.4070404728046671e-02
446 4.8590128160488450e-03 8.2291942618643085e-03 3.0082297554516629e-03
325 3.5974915274786445e-03 8.5606772984084326e-03 -1.1615893362149530e-03
875 -1.0365836510457512e-03 2.9787905220274463e-03 8.2511426098177236e-03
880 2.2041843081142725e-03 3.6953158029567777e-03 -5.4100976243384733e-03
253 -7.2585398340278464e-03 -2.2673399522928177e-02 1.0998397222828500e-02
882 1.4514607104346664e-02 1.5334039452841475e-02 -9.5873508819944407e-03
865 -5.3057631763339134e-03 4.4228738983662624e-03 -9.5027280796845855e-03
700 1.5705621858351587e-02 -1.7990154111469848e-02 -2.5660310589048767e-02
610 6.5788287281312472e-03 -8.9971185194491193e-03 1.5855914935443856e-03
443 -1.4423021929841654e-02 -2.3648434779879393e-03 -4.5943418909897881e-03
957 6.0564462201747032e-04 5.2542200886282371e-03 -2.3055063930557782e-03
928 9.4485033320718548e-03 -2.0530672238916357e-03 -4.3644981572336381e-03
950 7.5022888945697865e-03 8.3451294907503604e-04 3.8010713593322953e-03
227 1.9864557285038404e-02 -8.7901789203938679e-03 4.8006402277206685e-02
233 3.7428686820800181e-02 1.2338131370014067e-02 1.9540514501789719e-02
954 6.9683765501619217e-04 2.0442079463653473e-03 9.8527693021494239e-04
690 2.5383120218174090e-03 -2.9920995244926387e-04 -1.6007097868039400e-03
701 -9.2826090984601435e-03 -1.3668443421267966e-02 9.9099205557935603e-05
666 2.1707917209809757e-02 -3.5044224240122716e-03 6.0264262853096775e-04
694 -6.0182053937783949e-03 -4.6000139608516726e-03 -1.4286906259517276e-03
303 -6.3580191724772750e-03 4.0285292055710050e-03 3.4965233496646111e-03
955 7.5874546538738565e-03 -1.3059709507374059e-02 2.2181844290983625e-03
702 -2.8439432093107647e-02 -1.0225473025199683e-02 -1.8374476830116976e-02
450 -2.3207752772897972e-03 5.4564184644915088e-03 1.0041481202746781e-03
961 -2.3667174782556741e-02 5.7033167691872520e-03 -3.1984058977772866e-03
602 2.8015154633347296e-03 2.4382110248765436e-03 9.9306683331944765e-04
234 1.5212349350220155e-02 -9.1362099041976646e-04 1.7240034667023497e-02
341 3.5037074940499481e-03 1.2395279754403149e-03 2.5325640568632638e-03
818 -4.3141784509794848e-03 -1.6251316337795262e-02 1.5983289141901669e-02
1024 -8.3748103188181038e-03 -1.8089106280948792e-04 -1.6196841438543132e-04
222 1.9641149793072220e-03 -7.9661550299330811e-03 9.3169997541267223e-03
1056 -9.3552087513970473e-03 -8.9559303611764195e-03 8.1121366464504460e-03
250 5.5714448851910160e-03 6.1257659645173384e-03 2.2237150598608420e-02
224 6.7503405508078053e-03 2.4167045205108571e-03 1.1031091931887961e-02
933 -4.1118919517697658e-03 4.8363338682281092e-03 8.2258419872886599e-03
226 6.3559582190021540e-04 7.5825652018500066e-04 5.0891206841162482e-04
403 1.1087953147081355e-03 7.6624090281840213e-03 -8.0944916805797352e-05
260 -2.7978629399331677e-03 3.1252215111002494e-03 -1.1409000255215049e-03
350 2.3936073321969217e-03 -3.7405653926800351e-03 8.6018241157777061e-03
588 -3.5960114579459329e-02 7.8651555679481924e-03 -8.5096963419085594e-03
228 5.2230596374988408e-04 -8.0467969028117318e-03 6.5155273403395735e-03
953 -3.7746396254608179e-03 -1.7405426606218973e-03 -3.4078866675147789e-03
608 -4.0302710225359863e-03 -9.3845637149626172e-03 3.9669812833720598e-03
693 -3.4822230449078023e-03 -9.1965627687667234e-04 4.4566387501694697e-03
366 -8.6126473555579828e-04 -5.4078175246524858e-04 3.5327045243247726e-03
600 1.2372100890551290e-03 -2.8058713560098151e-03 -1.6208466022121168e-03
223 5.7279082605013578e-03 -3.5544040689941141e-04 -1.6021968866944030e-03
863 2.3776999427138016e-03 3.1799750423019252e-03 2.2069174409021018e-03
399 5.0309410904138035e-04 3.9170635191406022e-03 1.5155991178862694e-03
367 1.2516188731228112e-02 -1.8547122593493653e-02 -3.9447566485978705e-03
878 1.5892721950311231e-02 -6.7017766102032614e-04 8.5134868175791422e-03
815 -1.0948275830247066e-02 9.0397122505733053e-03 -2.2947454127489556e-03
398 2.1637567137446300e-03 7.4391212621803982e-04 1.0076561428214195e-02
877 3.6717030555076364e-03 3.1324906162878900e-03 -3.2811477160923463e-03
606 -3.6809412017139429e-03 4.1876106806588717e-03 8.7015288574781332e-04
874 9.2439772449482843e-03 4.7246061111328262e-03 -6.1739878826577270e-03
230 -2.2478974573196726e-03 -9.2677848590630332e-04 -3.0748627248114555e-03
324 1.4968023092040892e-03 8.5310788392317927e-03 4.4430697919932713e-03
883 -9.1549715141033289e-03 1.1991563218484788e-04 1.1525695474753737e-02
956 -1.3811683198991112e-02 -4.9151920656967212e-03 2.1641775779113963e-02
931 2.8504899143429272e-03 -3.6500209473965778e-03 2.2635067319753655e-03
249 2.2477644227883523e-03 -1.4780690589524753e-03 -1.4401102225341926e-03
321 -4.7519179262160141e-03 -3.5894251295558789e-03 7.5658410233903203e-04
301 -1.6208704193845420e-03 -4.5597018064008933e-03 1.1889771924687742e-02
692 -1.2569213888503955e-02 3.0071538174789177e-03 2.7615672646928324e-02
604 -1.8659933119543590e-02 -1.3455917784999730e-02 -1.6796865024962915e-02
611 1.2742778061969174e-02 -9.2526474264891957e-03 -1.9649035231570081e-02
347 -3.8852298365147876e-03 -9.2808983083365415e-04 -3.3744091224400877e-03
599 -3.6335209795928004e-03 1.0615384215169319e-03 -4.8225619495943515e-03
451 1.1125760176827308e-03 -5.6746289434793321e-03 3.5384689592205898e-04
308 -1.9120985803703719e-03 4.8862508053425051e-04 3.4077546734142808e-03
591 -8.7280014561127127e-03 -1.2720727881265860e-02 -2.0246052834022487e-02
601 8.9294813463507792e-03 -8.6718134139084392e-03 1.8388417970360178e-02
598 1.8269324604930932e-03 1.4086303961473551e-03 6.3600096833214227e-03
597 1.5542004385731441e-02 -4.2838837426018558e-02 -1.2037317878506541e-02
1152 2.9894977396448942e-03 1.2017859648443669e-03 -6.9009158848858110e-03
884 4.0208949777295507e-03 1.3126735613595052e-03 4.6347731714618916e-03
232 -2.5447822089894067e-03 -3.8012632251699990e-03 -2.7990978904655503e-02
300 4.7641800918641689e-03 8.2682695073432071e-04 -7.7577049712376301e-03
397 -9.9655694148360688e-03 -4.7110605061618611e-03 -2.7206717701646179e-03
974 3.7673253064593498e-03 -1.0580306038511639e-02 -1.4518658077679306e-03
876 -1.5728463278216330e-03 1.7146633942863962e-03 5.9815733559814999e-03
393 4.5591363837216804e-03 4.5083775607691664e-03 -5.1102459123663147e-03
381 -3.1136422979082881e-03 2.3855166013924951e-03 -4.0333661672501495e-03
256 -1.5999867167568853e-03 -4.3949065271391450e-05 -1.8071136667867063e-03
392 2.6921821221475146e-04 -5.6041145811317524e-03 -2.1214168297172438e-03
951 2.2232375130610419e-03 -3.9466765747124873e-03 -7.8201458682665044e-03
225 -3.9775673831618135e-03 3.2899477109367709e-03 7.5952708288101788e-04
302 1.1341388924104738e-02 1.5907808917553157e-02 2.2547860681187880e-02
697 -7.8219006342076184e-03 -1.9516427418055599e-03 -8.8444623821991287e-04
311 -7.6047656983945474e-03 -7.4190123563181625e-04 -1.9214326194555768e-02
312 4.6512148169421475e-03 1.5828681029784904e-02 -8.7413286248314813e-03
691 4.1957707856167476e-03 2.5225288490819280e-03 -4.0364680527630323e-03
251 -2.2605659948858920e-03 -5.0572604522025732e-03 7.0047717066808518e-03
387 -6.4379904304985849e-03 1.1423688647664439e-03 1.2723268375569618e-03
872 -6.5495948184019035e-04 5.1604356129318543e-03 4.9408096505365472e-05
603 3.6986243084467406e-03 2.1884065414850169e-03 -2.6395863672271907e-03
448 -7.6579042080854830e-03 3.1629405900340406e-02 -1.0724942270366739e-02
586 -1.2624335362498597e-03 4.5339120894254134e-03 3.1376075445738551e-04
363 -1.5157518994573297e-02 1.6480337097437476e-02 7.0782809977161616e-03
231 -1.1370985563801955e-02 -5.1252882878050745e-03 5.5644480413772216e-03
709 1.4330600220441376e-02 1.1549672470222148e-03 -1.3235679514585970e-02
378 1.1928139782975395e-02 -2.3756982810630234e-03 1.1316748841940871e-03
310 -8.8102582728037671e-03 -9.5395605213258465e-04 -4.2671884176822411e-03
248 -2.5380020495296917e-03 2.6875203903220677e-03 1.6399655476120249e-03
605 -3.2335139542825790e-02 2.5233767964833651e-02 -2.7947529258221498e-02
927 6.9271079561354105e-03 -3.7391979061868448e-03 3.1289768254610809e-03
873 9.5927876164682152e-03 -6.1540708954415432e-04 -9.3852763073231673e-04
592 6.4839277664002987e-03 1.1600522582724551e-02 7.3309549858932184e-03
1258 3.9088422352441020e-03 -3.0683167420165148e-03 -7.4626535769510682e-03
859 2.9926707346964059e-03 -3.7194772695703445e-03 -7.2284275915287383e-03
453 -6.6421834000913007e-03 -3.3100557091126355e-03 -2.9561371712163343e-03
402 -1.5747224251643113e-02 -1.1486961013379329e-02 -8.6781502330230981e-03
952 -1.1154105290739442e-02 -3.5442439483158363e-03 2.1690539595572343e-02
385 -1.1613611414545461e-03 8.4947503610135762e-04 -1.3137272723382073e-03
255 -5.0893453251840465e-04 3.1351983447266063e-03 -7.0554878142608237e-03
252 3.2602641344122800e-03 -7.5664719283536960e-03 -6.9732620788277057e-03
455 1.3870885984615730e-02 -1.0455943871039973e-02 7.5824255772843838e-03
391 -6.0025464155758698e-03 2.0555980605575989e-03 -5.0470217400229393e-03
698 -4.1261447054049003e-03 -3.6130747920508142e-03 5.8697330726857882e-03
879 1.8165063689598378e-03 -1.0133420793877429e-03 -2.6912140565121226e-03
695 7.7584090603200814e-03 2.3946418342012565e-02 -1.5120620566361957e-03
254 1.3418815926158944e-02 -6.6127289419721106e-03 4.1929234383622895e-03
309 -6.7389519028991877e-03 -5.3646130548374519e-04 7.3071963337832674e-05
394 6.1709999919750975e-03 2.5214216173021970e-03 3.6731709998200784e-04
444 -1.0262250962358891e-02 -3.8028017337710020e-03 -9.5373190077714773e-04
304 3.8975505385495414e-03 3.0721958889598291e-03 1.7102379112787743e-03
307 -2.8621499130541167e-03 1.3062260930594833e-03 4.2877272753481426e-03
607 9.9221085388352019e-04 -5.5912028916642155e-03 -2.9821555423504959e-03
382 2.8664974983753891e-03 1.3687595619190211e-04 7.7664482776103664e-04
349 4.8710842347413604e-03 1.2937402115859222e-02 -3.2095116007467409e-02
447 -1.1945644861512956e-03 4.0558512452940577e-03 -1.2775954925618998e-03
380 -2.3916908180753690e-02 2.3701809793953274e-03 -1.2757108177187448e-02
664 -3.7348312075812665e-03 2.4211457396627997e-03 5.3652357425325488e-03
306 -4.6555618449651296e-04 -5.2326075979363586e-03 1.0427445085840750e-02
351 -3.8014874327972886e-03 -2.3870040063339371e-03 -4.7459484534646320e-03
699 5.8481176135223500e-03 1.8763442009530540e-03 7.9868942365369823e-03
400 3.5116142267694501e-03 -2.1004658289109183e-03 -5.1040680996021514e-04
594 1.3427550842669585e-02 2.6736348931956375e-03 6.4059835298662686e-03
609 -1.4837593218474759e-02 -8.2303472641586800e-03 -1.8559971200912056e-02
371 2.0096398339854882e-02 -1.1920522742704030e-02 -2.4092901828717608e-03
959 -3.2789636933666525e-04 7.5255720703186835e-03 1.0646254207551309e-03
1060 2.5733282201909013e-02 5.1779075709573767e-03 1.4315144445834697e-02
323 -3.7360191291962629e-02 -2.9629022435128979e-02 6.1992110739098058e-03
881 1.2462638591371660e-03 -5.5875255773422646e-04 2.3471910764548561e-03
1058 -2.1723240281813112e-03 -4.7006415398580855e-03 -1.1437832724823403e-03
958 1.9420064570809135e-03 1.2892722376931524e-03 -1.3922309896846385e-04
270 1.0977013023023464e-02 3.1950979762592150e-03 1.9207606728620338e-03
1252 -1.8514293547952157e-03 4.9252584569763917e-03 4.1390036909524190e-03
344 -1.3836184426936451e-02 -9.7167135992966402e-03 -1.3259830145793888e-02
861 1.4516234334274802e-02 3.1079606397870808e-02 -4.5301637134379470e-03
1054 -2.1963755015749222e-03 4.2364408709199466e-03 1.4876827669065113e-03
819 1.8509893482757542e-02 -7.1694368507400803e-03 -1.3561654807652129e-03
454 5.9749457286142234e-03 1.0732627273897110e-02 -1.2680679736181208e-02
401 5.0792798427752219e-03 -3.4031223119248433e-03 -1.6841311914909944e-02
1059 6.0824102683065496e-03 2.4409650811641991e-02 -5.7983315727499849e-03
395 -2.2947528829257943e-03 4.7723918215884439e-03 -1.5756983352202393e-04
973 3.7383383086153865e-04 3.3456191235478404e-02 -8.3752713358789272e-03
383 -3.6773182204240945e-03 -1.1708394725109461e-02 3.9692314799623721e-03
449 -7.0400814914709803e-03 3.2588994230695091e-03 4.3512338237630165e-03
340 4.1745638073780273e-03 -5.5301983875274876e-03 6.6170579117554350e-03
258 2.5508693045506920e-02 -5.8423381487510845e-04 -1.1407330770477562e-02
674 -1.8229080970790224e-03 -1.1114937025330436e-02 5.6169407037899056e-03
960 9.4932732579702701e-03 -3.1800945436035797e-03 2.3152932121661071e-02
345 -8.4239871138460393e-03 7.0076502765353196e-03 -1.1933207796616231e-02
708 -9.6026184709393832e-03 -5.1958713021495453e-03 -2.2095353306403340e-03
243 9.5569892634543303e-04 3.7931464485992856e-03 2.5489276195732489e-03
975 4.4465607856123969e-04 1.0142944419842377e-02 -3.0166196147356703e-03
904 2.3505659840582175e-03 -7.3206557332295970e-04 2.3452198241710694e-03
910 2.6484536346867267e-02 -5.8041193598045132e-04 -1.6321171632304867e-02
246 1.3933737451222875e-02 1.3807940333662418e-02 -9.7566025017026929e-03
1186 1.0468503408641182e-02 1.4065905601988619e-02 6.8255464367361386e-03
577 -3.2891507706389313e-04 -2.7415091694157454e-03 4.9322393398629736e-04
728 -1.2554535643960628e-02 2.6730785462944957e-02 -1.0512289044492259e-04
1274 8.4393699549326281e-03 8.9599354160323913e-03 1.8620753287356351e-02
332 6.5776797739859243e-03 2.2624558782238662e-02 4.4054069240324761e-03
899 -1.2230803291494003e-03 6.0472407871837667e-03 -8.9445498952458758e-06
617 8.1158973799379565e-03 6.6375229637169950e-03 -2.8598141347950055e-02
989 -3.3295820332117873e-03 -1.5536642060911107e-03 -2.1242347655288114e-03
217 1.5057022799871242e-03 6.1475436730555394e-03 -1.0659918513146269e-03
716 1.0719435054595144e-03 1.7211558062189237e-03 -1.0512340134367786e-02
317 -7.9972133611133419e-03 -1.8947063770571202e-03 1.0847652921544130e-03
319 -5.0905571956621955e-04 1.3511233380341856e-02 3.3404691238522761e-03
1119 8.2121437222670575e-04 1.6602119670886281e-03 -1.5270444549101568e-03
567 -1.6166331943494028e-03 2.6045300811063472e-03 -8.4418205660179765e-04
1244 -5.8280484711173341e-03 -1.4133292073444767e-03 -5.0489540100411593e-03
907 5.7630146479445681e-03 -1.0408722059298649e-03 -8.0559535239552334e-04
1190 1.0394357381031869e-02 -3.0728590052842154e-02 -7.5261724684684396e-03
590 -4.0398333120388926e-03 2.2233772580041735e-03 8.2492083671297112e-03
1189 -4.4244523149754135e-03 1.7592286114193487e-02 -6.0906590093047020e-04
1238 -9.5151521220844786e-03 6.3247729342214192e-03 3.5355253556366676e-03
521 -1.7485043417473109e-03 -2.0902480896909628e-04 3.7297227074991552e-03
966 3.8797624309901016e-04 6.5219814906667360e-04 -5.8208024327625731e-03
1247 4.5302091373962367e-04 2.4982505589576341e-02 7.4903988719538430e-03
1245 -1.6325682908906460e-03 -5.3381924118479293e-03 -2.1267332069059529e-03
237 -1.4855424400182283e-03 2.0233636540069939e-02 3.1103738130032723e-02
669 5.2518115231394331e-03 1.6869842339473909e-03 -1.9751018257329910e-02
1237 -8.4525165925203836e-03 4.2443255807837251e-03 -8.7987186161145939e-03
992 9.5305520646050482e-03 3.6335222875945850e-03 3.1421676654889372e-04
1129 -2.5943041974134749e-02 -1.9862887827918289e-02 1.3671231517562010e-02
1240 -2.4448324411672048e-03 1.1526135361874165e-03 1.3809266138419686e-03
1263 -1.0272502606439137e-03 8.8175671113268619e-04 -6.1611401294778192e-04
13 -3.0345477485263365e-04 1.0222944792885895e-03 -2.3020959834091918e-02
898 2.0941688360539890e-03 2.3545315181271038e-04 3.2903978710366109e-03
1239 -5.3671818995042154e-03 7.7218054164700850e-03 -1.1186736587641303e-04
8 9.8146021367119573e-04 -7.9436789125319422e-04 5.5861206054862843e-03
706 7.4627635638303700e-05 2.8538706229936169e-03 -3.4391357635354843e-03
2 -5.3464519158240732e-03 -4.7952358192615311e-03 3.7207149487852305e-03
396 2.7507638281214233e-03 -1.8556794134799422e-03 -5.8772187452688536e-03
900 -1.7122263829623143e-02 -1.5982629400522665e-02 2.1422909898400535e-02
1272 8.9509413573001754e-04 -1.5265426822800717e-03 -1.7037321067332842e-03
1192 -2.5903054584536160e-03 4.9808937330138763e-03 -6.7507162468338267e-04
314 3.4903769997081118e-03 6.6887976315531976e-03 -4.9407129328055055e-03
1185 8.6020672826359040e-03 -8.6497180562606225e-04 -5.4729761277895169e-04
970 4.3522791637925958e-04 9.2623706253902750e-03 -6.5152660115329834e-03
1000 1.5388205425361484e-02 -4.5383607465428119e-03 -1.4071243993474586e-03
1298 -1.1810841473883619e-02 -6.2473072447686972e-03 3.3238824314083680e-03
531 2.6012668946021639e-02 6.5910525796277226e-03 1.0113022597022063e-02
522 3.2407397173366400e-03 -7.2102864755128433e-03 -1.8607287502765176e-03
615 -2.6876101355299805e-03 6.1530186123010563e-04 -6.3145537451114470e-03
1242 -7.4293699396906845e-03 1.9609145930552244e-02 -6.6614564511012350e-03
247 -1.9352108623398763e-02 -1.3390120504429136e-02 7.7168586159687864e-03
727 -4.1228747553330558e-02 2.4803707372884433e-02 1.3081648731399483e-03
972 1.6164677055273107e-03 -6.3004506589994912e-03 4.8267137628094553e-04
9 2.3306735952607601e-03 -4.1903953234888429e-03 -3.7020607533989007e-04
532 3.8192028006774409e-03 -2.3883148441204035e-02 4.8749861986188544e-03
993 3.1379177230034944e-03 -1.6956606176001480e-03 2.0612488114017734e-03
1147 -2.0499674061204991e-02 2.6810786520992051e-02 2.5162634730410117e-03
908 -7.7052136938596406e-03 -5.2850790473623118e-03 1.3851556909908129e-02
320 1.2788875908627388e-03 5.5705059200685237e-05 1.8972224418022045e-03
526 -2.1272112998192592e-03 1.4973704795449360e-02 5.5777124892981899e-03
1203 -2.5090692149656663e-02 -7.4503256552531797e-03 -2.8300721658879438e-02
905 2.2402667514241207e-03 -2.2539128526882597e-03 4.1219337506822494e-03
707 2.4299528016335195e-03 7.3337964874536496e-03 -3.7326534251398338e-03
1197 4.6545558860364078e-03 -1.2709321270050879e-03 1.3603868370733504e-03
1127 1.3653712097324168e-03 -8.1344198469008068e-03 -3.8693467195335717e-03
612 4.8578706171408751e-03 -4.7441039441917482e-04 -2.3433157974849408e-03
724 4.6401806905736788e-03 6.9280844231784681e-03 -2.6361008574334014e-03
313 -1.8549954649679284e-03 -5.4574465873589231e-03 1.4173975146812316e-03
1262 1.0865562913852625e-03 -5.0100520546816317e-03 -2.2519119201997112e-03
1124 -1.6227357376571990e-02 1.2546602049324121e-03 -7.3392720161707253e-03
1267 -1.7569467144852528e-02 3.4490344501684748e-02 -1.8912962225871337e-02
906 -2.5141877075083351e-03 1.9034868644285279e-03 8.3686402886075806e-04
1241 8.6946526673169974e-03 1.7050720034837225e-02 1.6783713147698668e-02
719 -4.1087145139594812e-03 5.6714378842332601e-03 -2.6939311816037898e-03
616 7.3695960051138522e-04 -1.0958839576155446e-03 -2.6297550461388819e-03
523 -1.5193808065980471e-03 -3.7444957306311394e-03 7.2225348910789555e-03
528 1.0269688296474250e-03 -6.5151640100515199e-03 -9.4477454742457554e-05
1268 1.9632850825653790e-03 3.9985872254385347e-03 8.9822038277495939e-03
1195 -7.6084515243168326e-03 3.7722669034059235e-02 -1.3812427853674080e-03
725 -1.0306759225215336e-04 3.4834171359942323e-03 -2.1898709624589767e-04
593 1.0221884161291109e-04 7.7498611014259163e-04 -6.0104127968083100e-03
1248 -3.8938443390682939e-03 -1.7450474555470427e-02 -1.2633995920921348e-02
1131 9.3161094276611334e-03 5.0906180379837428e-03 6.7215985197693817e-03
967 9.4591765318600470e-03 -1.6336311647864655e-03 -2.7352669411712474e-03
1246 -6.3271454010192024e-03 1.0119560666397165e-02 1.1631953319533237e-02
1199 6.5366010316326457e-03 -7.2536432311095930e-03 -3.0652329616355212e-02
316 2.2987850798896494e-03 -1.4254671373935806e-03 -6.1006368068536546e-03
1270 4.7257444346036062e-03 -6.3394068593073880e-03 2.0582791833747196e-03
1207 5.5962161012170289e-03 1.4694916675682502e-02 1.3100475820231793e-02
712 1.2226760328200980e-02 5.1300910531157937e-03 -2.6432943674173058e-03
718 4.7185749774607813e-03 -6.9272577676289509e-03 -1.2622935779727819e-02
1076 -1.1269811138529635e-02 3.2245058303106478e-03 1.3799619255686331e-02
12 1.7371896845871697e-02 -1.0020155252819726e-02 -9.3879660643793085e-03
723 -1.8778839136368763e-03 -6.2565668794584304e-03 3.9924016869377337e-03
1198 -1.3134612616139158e-03 1.3678667317398329e-03 4.2984506859951666e-03
618 6.0223012359929958e-03 1.4047561873438884e-02 -9.7418919770441825e-03
1194 -3.6985797180427286e-03 -2.8211930725038962e-03 -1.6475826947870413e-02
595 4.0062131796221902e-03 -5.5438251205513099e-03 -3.0912458474834921e-03
576 -6.5821819273201194e-03 -3.5427655818614204e-03 -3.6609295878510489e-03
994 3.0666538846001196e-02 -6.9082073301692665e-04 5.9308916810237294e-03
242 3.1212568734819714e-03 -4.8109010067163577e-03 -2.1095775541181395e-03
315 1.4014102781314782e-02 3.6042781461277321e-03 9.0341184726274535e-03
726 7.8197941510508972e-03 4.1728610938551909e-02 1.1473120191096576e-02
720 -2.2294434160273937e-03 5.9028478138933686e-04 -3.9216705881242224e-03
1187 -2.2202803392148657e-03 -6.4723852685967410e-03 -8.5312376554685897e-03
1193 7.7767076611076893e-03 2.7246798690918296e-03 8.0213507368066578e-04
1236 -2.3527740197377090e-03 2.6748755598315307e-03 -2.1864769750045373e-03
996 3.0403556908382653e-03 -9.1252436782910740e-04 -2.2639732106407395e-03
220 8.3067827794807217e-03 -5.7939325858975786e-03 3.1909024223709019e-03
11 -1.5862579720879306e-02 2.2991785856347419e-03 -1.2766066345356165e-02
529 1.3535442995194897e-03 3.1461364125379481e-03 -2.3068747862291764e-03
997 6.9013362634774075e-03 2.4900051390394340e-03 -1.4675071949064990e-03
524 6.2811910473338116e-03 -7.7827437434323998e-03 1.7280623334154351e-03
1188 8.8091277429609173e-04 -2.5141508826405905e-03 -2.2261844331783066e-04
533 2.1311606571993942e-02 -2.3775631793715682e-02 1.2483625762182734e-03
909 -3.1791254570457334e-03 1.5962650725482596e-02 -1.5472522496421792e-03
527 -1.1099024857358910e-03 -1.6207115157443818e-03 -5.5987277697048534e-04
717 1.0189443644827057e-03 3.5962099068969113e-03 4.7834152332268728e-03
902 -1.8125139120644632e-03 1.0889487308907613e-03 -3.1043684933949856e-03
1208 -9.2386830925920219e-03 -1.3394950015935143e-02 2.0571876576112617e-03
995 1.0220258412509488e-02 -6.8513801563636510e-03 -4.5221711175539990e-02
238 5.3004663113402272e-03 -6.9875978300772577e-03 9.1430033395384133e-03
525 -2.1210940069078333e-03 -2.6198996360883342e-04 2.9162740449725053e-03
998 -2.6618375506504951e-03 -1.3547776689329361e-03 2.3542421954236364e-03
901 -7.6064386083975043e-03 9.8422924874469533e-03 -1.3339118024602678e-03
1243 1.1426472258724639e-04 1.3941986201083541e-03 -4.0706161268127417e-03
990 -4.8047127776847005e-03 -3.0721284864682753e-03 4.6852451061080002e-03
322 -2.4407824733231180e-03 -2.1551465932933161e-03 6.7619865825523963e-04
999 -5.9368280607164422e-03 -2.0500259154247174e-03 -8.9206605177643943e-03
1001 -4.2517085297722563e-03 3.4449577655699476e-02 -1.1643108909233658e-02
236 1.8390274069570289e-03 -2.6597951650500977e-03 2.9237116500188355e-03
1191 -3.1388719819270580e-03 -2.3085380016229741e-03 -1.8700847367869359e-03
1202 -6.1325269804583761e-03 1.8210766177034626e-02 1.1756053041215669e-02
245 8.0211653957729390e-03 -1.0908690264727638e-03 -1.1157199166317345e-02
903 -6.4246183416528171e-03 -1.6415093988061905e-02 1.6613889537459771e-02
1196 -2.7772157039541697e-03 -4.3829695389291413e-03 -9.9298533586417662e-03
991 -2.5393528226876200e-02 -1.0272939994651347e-02 -1.0859905931297916e-03
1205 -8.5903729005708967e-04 -8.2583551637409509e-04 2.4650956569410360e-04
3 -1.1889616947541091e-02 -1.7901222939665659e-02 -1.0648935196797375e-02
582 -9.9337327732645442e-04 -6.3095998146452201e-03 -4.3153328772447307e-03
722 2.9910471358102096e-03 -9.7486167297060214e-04 5.4293406369861361e-03
1184 -6.6998998501348432e-03 -3.3553814758288136e-03 -6.8929669551389306e-04
589 1.2375545347213456e-03 -5.0080826324410757e-03 8.5263738039479762e-03
721 -4.5640215280335879e-03 2.8101425441851995e-02 2.7224062012245746e-02
318 1.3538000079659498e-03 1.0446433129875015e-02 9.7939853802440947e-03
562 -2.0717050956519562e-02 -2.8072046016427078e-02 1.1770088348132734e-02
1130 -4.1954878383542956e-04 -1.3973867662777190e-02 -1.2409175478392528e-02
244 5.6678849914621257e-03 6.7080409449823129e-04 -6.9345356560716670e-03
971 2.5147463589758086e-04 -7.7259118717826376e-03 -7.7452094901262671e-03
221 1.2390168910053540e-03 5.1587948702407214e-05 -1.5130849907378236e-04
445 -7.9268310343076579e-03 3.0107916042607492e-02 -5.2822780677133250e-03
614 -1.3579118398105780e-02 2.8803179205114035e-03 -2.4183358245852569e-02
1300 -7.9745772472396489e-03 -2.0851304634014904e-02 7.9726822054077984e-03
703 1.8166745679079788e-03 2.5727477270072584e-03 -4.6103676163951283e-03

Bonds

1 222 118 119
2 227 118 124
3 227 118 123
4 243 118 122
5 222 92 93
6 227 92 98
7 227 92 97
8 243 92 96
9 243 1107 1113
10 222 1107 1114
11 227 1107 1108
12 345 667 668
13 333 667 673
14 345 667 671
15 345 823 824
16 333 823 829
17 345 823 827
18 345 628 629
19 333 628 634
20 345 628 632
21 227 659 661
22 227 659 662
23 227 659 663
24 222 79 80
25 227 79 85
26 227 79 84
27 243 79 83
28 345 485 486
29 333 485 491
30 345 485 489
31 345 498 499
32 333 498 504
33 345 498 502
34 345 121 122
35 333 121 127
36 345 121 125
37 345 537 538
38 333 537 543
39 345 537 541
40 345 420 421
41 333 420 426
42 345 420 424
43 222 1106 1107
44 227 1106 1112
45 227 1106 1111
46 243 1106 1110
47 222 638 639
48 227 638 644
49 227 638 643
50 243 638 642
51 243 821 827
52 222 821 828
53 227 821 822
54 345 199 200
55 333 199 205
56 345 199 203
57 345 888 889
58 333 888 894
59 345 888 892
60 227 100 102
61 227 100 103
62 227 100 104
63 345 433 434
64 333 433 439
65 345 433 437
66 227 828 830
67 227 828 831
68 227 828 832
69 222 495 496
70 227 495 501
71 227 495 500
72 243 495 499
73 222 651 652
74 227 651 657
75 227 651 656
76 243 651 655
77 243 483 489
78 222 483 490
79 227 483 484
80 222 482 483
81 227 482 488
82 227 482 487
83 243 482 486
84 227 490 492
85 227 490 493
86 227 490 494
87 243 496 502
88 222 496 503
89 227 496 497
90 243 652 658
91 222 652 659
92 227 652 653
93 345 1109 1110
94 333 1109 1115
95 345 1109 1113
96 243 535 541
97 222 535 542
98 227 535 536
99 243 93 99
100 222 93 100
101 227 93 94
102 222 469 470
103 227 469 475
104 227 469 474
105 243 469 473
106 222 157 158
107 227 157 163
108 227 157 162
109 243 157 161
110 222 820 821
111 227 820 826
112 227 820 825
113 243 820 824
114 222 625 626
115 227 625 631
116 227 625 630
117 243 625 629
118 243 80 86
119 222 80 87
120 227 80 81
121 243 470 476
122 222 470 477
123 227 470 471
124 243 626 632
125 222 626 633
126 227 626 627
127 227 477 479
128 227 477 480
129 227 477 481
130 243 119 125
131 222 119 126
132 227 119 120
133 227 1114 1116
134 227 1114 1117
135 227 1114 1118
136 222 430 431
137 227 430 436
138 227 430 435
139 243 430 434
140 243 431 437
141 222 431 438
142 227 431 432
143 243 639 645
144 222 639 646
145 227 639 640
146 227 360 362
147 227 360 363
148 227 360 364
149 227 87 89
150 227 87 90
151 227 87 91
152 345 472 473
153 333 472 478
154 345 472 476
155 227 126 128
156 227 126 129
157 227 126 130
158 227 516 518
159 227 516 519
160 227 516 520
161 227 555 557
162 227 555 558
163 227 555 559
164 243 756 762
165 222 756 763
166 227 756 757
167 243 548 554
168 222 548 555
169 227 548 549
170 222 1093 1094
171 227 1093 1099
172 227 1093 1098
173 243 1093 1097
174 227 165 167
175 227 165 168
176 227 165 169
177 227 1179 1181
178 227 1179 1182
179 227 1179 1183
180 227 1283 1285
181 227 1283 1286
182 227 1283 1287
183 222 274 275
184 227 274 280
185 227 274 279
186 243 274 278
187 345 173 174
188 333 173 179
189 345 173 177
190 345 511 512
191 333 511 517
192 345 511 515
193 222 170 171
194 227 170 176
195 227 170 175
196 243 170 174
197 222 456 457
198 227 456 462
199 227 456 461
200 243 456 460
201 227 763 765
202 227 763 766
203 227 763 767
204 227 282 284
205 227 282 285
206 227 282 286
207 243 1211 1217
208 222 1211 1218
209 227 1211 1212
210 222 976 977
211 227 976 982
212 227 976 981
213 243 976 980
214 222 1210 1211
215 227 1210 1216
216 227 1210 1215
217 243 1210 1214
218 345 329 330
219 333 329 335
220 345 329 333
221 243 1094 1100
222 222 1094 1101
223 227 1094 1095
224 222 1275 1276
225 227 1275 1281
226 227 1275 1280
227 243 1275 1279
228 345 1265 1266
229 333 1265 1271
230 345 1265 1269
231 345 30 31
232 333 30 36
233 345 30 34
234 243 28 34
235 222 28 35
236 227 28 29
237 227 22 24
238 227 22 25
239 227 22 26
240 227 633 635
241 227 633 636
242 227 633 637
243 227 35 37
244 227 35 38
245 227 35 39
246 227 984 986
247 227 984 987
248 227 984 988
249 243 1276 1282
250 222 1276 1283
251 227 1276 1277
252 345 1096 1097
253 333 1096 1102
254 345 1096 1100
255 243 275 281
256 222 275 282
257 227 275 276
258 243 1172 1178
259 222 1172 1179
260 227 1172 1173
261 227 178 180
262 227 178 181
263 227 178 182
264 222 27 28
265 227 27 33
266 227 27 32
267 243 27 31
268 345 1213 1214
269 333 1213 1219
270 345 1213 1217
271 243 977 983
272 222 977 984
273 227 977 978
274 345 17 18
275 333 17 23
276 345 17 21
277 227 1101 1103
278 227 1101 1104
279 227 1101 1105
280 345 1278 1279
281 333 1278 1284
282 345 1278 1282
283 243 158 164
284 222 158 165
285 227 158 159
286 345 160 161
287 333 160 166
288 345 160 164
289 345 277 278
290 333 277 283
291 345 277 281
292 243 457 463
293 222 457 464
294 227 457 458
295 227 1218 1220
296 227 1218 1221
297 227 1218 1222
298 243 509 515
299 222 509 516
300 227 509 510
301 222 508 509
302 227 508 514
303 227 508 513
304 243 508 512
305 243 171 177
306 222 171 178
307 227 171 172
308 345 1161 1162
309 333 1161 1167
310 345 1161 1165
311 222 196 197
312 227 196 202
313 227 196 201
314 243 196 200
315 222 131 132
316 227 131 137
317 227 131 136
318 243 131 135
319 227 932 934
320 227 932 935
321 227 932 936
322 222 1158 1159
323 227 1158 1164
324 227 1158 1163
325 243 1158 1162
326 243 197 203
327 222 197 204
328 227 197 198
329 243 262 268
330 222 262 269
331 227 262 263
332 222 885 886
333 227 885 891
334 227 885 890
335 243 885 889
336 243 1029 1035
337 222 1029 1036
338 227 1029 1030
339 345 134 135
340 333 134 140
341 345 134 138
342 227 139 141
343 227 139 142
344 227 139 143
345 243 665 671
346 222 665 672
347 227 665 666
348 345 862 863
349 333 862 868
350 345 862 866
351 222 261 262
352 227 261 267
353 227 261 266
354 243 261 265
355 243 1159 1165
356 222 1159 1166
357 227 1159 1160
358 222 794 795
359 227 794 800
360 227 794 799
361 243 794 798
362 227 867 869
363 227 867 870
364 227 867 871
365 345 82 83
366 333 82 88
367 345 82 86
368 227 1166 1168
369 227 1166 1169
370 227 1166 1170
371 243 925 931
372 222 925 932
373 227 925 926
374 243 353 359
375 222 353 360
376 227 353 354
377 243 834 840
378 222 834 841
379 227 834 835
380 345 641 642
381 333 641 647
382 345 641 645
383 227 646 648
384 227 646 649
385 227 646 650
386 345 836 837
387 333 836 842
388 345 836 840
389 222 833 834
390 227 833 839
391 227 833 838
392 243 833 837
393 345 368 369
394 333 368 374
395 345 368 372
396 222 1028 1029
397 227 1028 1034
398 227 1028 1033
399 243 1028 1032
400 227 1257 1259
401 227 1257 1260
402 227 1257 1261
403 227 269 271
404 227 269 272
405 227 269 273
406 345 732 733
407 333 732 738
408 345 732 736
409 227 1036 1038
410 227 1036 1039
411 227 1036 1040
412 227 841 843
413 227 841 844
414 227 841 845
415 243 132 138
416 222 132 139
417 227 132 133
418 243 1250 1256
419 222 1250 1257
420 227 1250 1251
421 243 145 151
422 222 145 152
423 227 145 146
424 345 355 356
425 333 355 361
426 345 355 359
427 222 1249 1250
428 227 1249 1255
429 227 1249 1254
430 243 1249 1253
431 227 152 154
432 227 152 155
433 227 152 156
434 243 795 801
435 222 795 802
436 227 795 796
437 227 204 206
438 227 204 207
439 227 204 208
440 345 264 265
441 333 264 270
442 345 264 268
443 227 893 895
444 227 893 896
445 227 893 897
446 222 924 925
447 227 924 930
448 227 924 929
449 243 924 928
450 345 797 798
451 333 797 803
452 345 797 801
453 243 418 424
454 222 418 425
455 227 418 419
456 222 417 418
457 227 417 423
458 227 417 422
459 243 417 421
460 243 860 866
461 222 860 867
462 227 860 861
463 243 886 892
464 222 886 893
465 227 886 887
466 222 352 353
467 227 352 358
468 227 352 357
469 243 352 356
470 227 425 427
471 227 425 428
472 227 425 429
473 227 672 674
474 227 672 675
475 227 672 676
476 222 729 730
477 227 729 735
478 227 729 734
479 243 729 733
480 227 568 570
481 227 568 571
482 227 568 572
483 243 210 216
484 222 210 217
485 227 210 211
486 243 678 684
487 222 678 685
488 227 678 679
489 222 287 288
490 227 287 293
491 227 287 292
492 243 287 291
493 222 768 769
494 227 768 774
495 227 768 773
496 243 768 772
497 222 326 327
498 227 326 332
499 227 326 331
500 243 326 330
501 243 327 333
502 222 327 334
503 227 327 328
504 222 677 678
505 227 677 683
506 227 677 682
507 243 677 681
508 243 1133 1139
509 222 1133 1140
510 227 1133 1134
511 222 911 912
512 227 911 917
513 227 911 916
514 243 911 915
515 345 1200 1201
516 333 1200 1206
517 345 1200 1204
518 345 771 772
519 333 771 777
520 345 771 775
521 227 295 297
522 227 295 298
523 227 295 299
524 243 15 21
525 222 15 22
526 227 15 16
527 227 919 921
528 227 919 922
529 227 919 923
530 227 802 804
531 227 802 805
532 227 802 806
533 222 209 210
534 227 209 215
535 227 209 214
536 243 209 213
537 243 912 918
538 222 912 919
539 227 912 913
540 222 560 561
541 227 560 566
542 227 560 565
543 243 560 564
544 222 1171 1172
545 227 1171 1177
546 227 1171 1176
547 243 1171 1175
548 222 1288 1289
549 227 1288 1294
550 227 1288 1293
551 243 1288 1292
552 243 561 567
553 222 561 568
554 227 561 562
555 345 1135 1136
556 333 1135 1141
557 345 1135 1139
558 227 685 687
559 227 685 688
560 227 685 689
561 345 290 291
562 333 290 296
563 345 290 294
564 345 147 148
565 333 147 153
566 345 147 151
567 345 1031 1032
568 333 1031 1037
569 345 1031 1035
570 227 1296 1298
571 227 1296 1299
572 227 1296 1300
573 345 914 915
574 333 914 920
575 345 914 918
576 222 1132 1133
577 227 1132 1138
578 227 1132 1137
579 243 1132 1136
580 227 334 336
581 227 334 337
582 227 334 338
583 227 776 778
584 227 776 779
585 227 776 780
586 345 212 213
587 333 212 218
588 345 212 216
589 222 14 15
590 227 14 20
591 227 14 19
592 243 14 18
593 243 769 775
594 222 769 776
595 227 769 770
596 227 1140 1142
597 227 1140 1143
598 227 1140 1144
599 345 680 681
600 333 680 686
601 345 680 684
602 345 1291 1292
603 333 1291 1297
604 345 1291 1295
605 222 144 145
606 227 144 150
607 227 144 149
608 243 144 148
609 243 288 294
610 222 288 295
611 227 288 289
612 243 1289 1295
613 222 1289 1296
614 227 1289 1290
615 345 4 5
616 333 4 10
617 345 4 8
618 227 737 739
619 227 737 740
620 227 737 741
621 222 1 2
622 227 1 7
623 227 1 6
624 243 1 5
625 227 464 466
626 227 464 467
627 227 464 468
628 345 95 96
629 333 95 101
630 345 95 99
631 222 235 236
632 227 235 241
633 227 235 240
634 243 235 239
635 243 704 710
636 222 704 711
637 227 704 705
638 345 1174 1175
639 333 1174 1180
640 345 1174 1178
641 227 711 713
642 227 711 714
643 227 711 715
644 243 730 736
645 222 730 737
646 227 730 731
647 243 808 814
648 222 808 815
649 227 808 809
650 243 1016 1022
651 222 1016 1023
652 227 1016 1017
653 222 1015 1016
654 227 1015 1021
655 227 1015 1020
656 243 1015 1019
657 345 108 109
658 333 108 114
659 345 108 112
660 227 1062 1064
661 227 1062 1065
662 227 1062 1066
663 243 405 411
664 222 405 412
665 227 405 406
666 222 66 67
667 227 66 72
668 227 66 71
669 243 66 70
670 227 438 440
671 227 438 441
672 227 438 442
673 345 1057 1058
674 333 1057 1063
675 345 1057 1061
676 227 503 505
677 227 503 506
678 227 503 507
679 243 1055 1061
680 222 1055 1062
681 227 1055 1056
682 227 542 544
683 227 542 545
684 227 542 546
685 227 412 414
686 227 412 415
687 227 412 416
688 345 849 850
689 333 849 855
690 345 849 853
691 345 69 70
692 333 69 75
693 345 69 73
694 243 67 73
695 222 67 74
696 227 67 68
697 345 407 408
698 333 407 413
699 345 407 411
700 222 1002 1003
701 227 1002 1008
702 227 1002 1007
703 243 1002 1006
704 227 854 856
705 227 854 857
706 227 854 858
707 227 1088 1090
708 227 1088 1091
709 227 1088 1092
710 222 807 808
711 227 807 813
712 227 807 812
713 243 807 811
714 222 937 938
715 227 937 943
716 227 937 942
717 243 937 941
718 222 105 106
719 227 105 111
720 227 105 110
721 243 105 109
722 243 1003 1009
723 222 1003 1010
724 227 1003 1004
725 243 106 112
726 222 106 113
727 227 106 107
728 222 1080 1081
729 227 1080 1086
730 227 1080 1085
731 243 1080 1084
732 345 342 343
733 333 342 348
734 345 342 346
735 243 847 853
736 222 847 854
737 227 847 848
738 227 386 388
739 227 386 389
740 227 386 390
741 345 940 941
742 333 940 946
743 345 940 944
744 345 810 811
745 333 810 816
746 345 810 814
747 345 1018 1019
748 333 1018 1024
749 345 1018 1022
750 227 74 76
751 227 74 77
752 227 74 78
753 222 846 847
754 227 846 852
755 227 846 851
756 243 846 850
757 222 339 340
758 227 339 345
759 227 339 344
760 243 339 343
761 345 654 655
762 333 654 660
763 345 654 658
764 227 1153 1155
765 227 1153 1156
766 227 1153 1157
767 227 113 115
768 227 113 116
769 227 113 117
770 222 404 405
771 227 404 410
772 227 404 409
773 243 404 408
774 345 1005 1006
775 333 1005 1011
776 345 1005 1009
777 243 938 944
778 222 938 945
779 227 938 939
780 243 1081 1087
781 222 1081 1088
782 227 1081 1082
783 227 1010 1012
784 227 1010 1013
785 227 1010 1014
786 227 1023 1025
787 227 1023 1026
788 227 1023 1027
789 222 534 535
790 227 534 540
791 227 534 539
792 243 534 538
793 345 1083 1084
794 333 1083 1089
795 345 1083 1087
796 227 373 375
797 227 373 376
798 227 373 377
799 227 61 63
800 227 61 64
801 227 61 65
802 243 184 190
803 222 184 191
804 227 184 185
805 243 1146 1152
806 222 1146 1153
807 227 1146 1147
808 243 743 749
809 222 743 750
810 227 743 744
811 345 1226 1227
812 333 1226 1232
813 345 1226 1230
814 222 40 41
815 227 40 46
816 227 40 45
817 243 40 44
818 227 1231 1233
819 227 1231 1234
820 227 1231 1235
821 227 1049 1051
822 227 1049 1052
823 227 1049 1053
824 227 620 622
825 227 620 623
826 227 620 624
827 222 963 964
828 227 963 969
829 227 963 968
830 243 963 967
831 227 789 791
832 227 789 792
833 227 789 793
834 345 1122 1123
835 333 1122 1128
836 345 1122 1126
837 243 1224 1230
838 222 1224 1231
839 227 1224 1225
840 345 979 980
841 333 979 985
842 345 979 983
843 222 1067 1068
844 227 1067 1073
845 227 1067 1072
846 243 1067 1071
847 345 758 759
848 333 758 764
849 345 758 762
850 243 574 580
851 222 574 581
852 227 574 575
853 227 48 50
854 227 48 51
855 227 48 52
856 345 745 746
857 333 745 751
858 345 745 749
859 243 964 970
860 222 964 971
861 227 964 965
862 222 1223 1224
863 227 1223 1229
864 227 1223 1228
865 243 1223 1227
866 243 782 788
867 222 782 789
868 227 782 783
869 222 781 782
870 227 781 787
871 227 781 786
872 243 781 785
873 243 41 47
874 222 41 48
875 227 41 42
876 222 573 574
877 227 573 579
878 227 573 578
879 243 573 577
880 345 186 187
881 333 186 192
882 345 186 190
883 222 183 184
884 227 183 189
885 227 183 188
886 243 183 187
887 222 1145 1146
888 227 1145 1151
889 227 1145 1150
890 243 1145 1149
891 345 43 44
892 333 43 49
893 345 43 47
894 222 755 756
895 227 755 761
896 227 755 760
897 243 755 759
898 227 581 583
899 227 581 584
900 227 581 585
901 345 550 551
902 333 550 556
903 345 550 554
904 345 784 785
905 333 784 790
906 345 784 788
907 243 613 619
908 222 613 620
909 227 613 614
910 345 1148 1149
911 333 1148 1154
912 345 1148 1152
913 222 742 743
914 227 742 748
915 227 742 747
916 243 742 746
917 227 1075 1077
918 227 1075 1078
919 227 1075 1079
920 227 191 193
921 227 191 194
922 227 191 195
923 243 1120 1126
924 222 1120 1127
925 227 1120 1121
926 222 1041 1042
927 227 1041 1047
928 227 1041 1046
929 243 1041 1045
930 243 1068 1074
931 222 1068 1075
932 227 1068 1069
933 227 945 947
934 227 945 948
935 227 945 949
936 243 1042 1048
937 222 1042 1049
938 227 1042 1043
939 243 54 60
940 222 54 61
941 227 54 55
942 345 459 460
943 333 459 465
944 345 459 463
945 345 1070 1071
946 333 1070 1076
947 345 1070 1074
948 345 563 564
949 333 563 569
950 345 563 567
951 222 53 54
952 227 53 59
953 227 53 58
954 243 53 57
955 227 750 752
956 227 750 753
957 227 750 754
958 222 547 548
959 227 547 553
960 227 547 552
961 243 547 551
962 345 1044 1045
963 333 1044 1050
964 345 1044 1048
965 345 56 57
966 333 56 62
967 345 56 60
968 243 587 593
969 222 587 594
970 227 587 588
971 222 365 366
972 227 365 371
973 227 365 370
974 243 365 369
975 243 379 385
976 222 379 386
977 227 379 380
978 345 446 447
979 333 446 452
980 345 446 450
981 345 875 876
982 333 875 881
983 345 875 879
984 227 880 882
985 227 880 883
986 227 880 884
987 222 443 444
988 227 443 449
989 227 443 448
990 243 443 447
991 222 950 951
992 227 950 956
993 227 950 955
994 243 950 954
995 222 690 691
996 227 690 696
997 227 690 695
998 243 690 694
999 345 303 304
1000 333 303 309
1001 345 303 307
1002 345 602 603
1003 333 602 608
1004 345 602 606
1005 222 222 223
1006 227 222 228
1007 227 222 227
1008 243 222 226
1009 345 953 954
1010 333 953 959
1011 345 953 957
1012 345 693 694
1013 333 693 699
1014 345 693 697
1015 243 366 372
1016 222 366 373
1017 227 366 367
1018 243 600 606
1019 222 600 607
1020 227 600 601
1021 243 223 229
1022 222 223 230
1023 227 223 224
1024 227 399 401
1025 227 399 402
1026 227 399 403
1027 227 815 817
1028 227 815 818
1029 227 815 819
1030 227 230 232
1031 227 230 233
1032 227 230 234
1033 243 249 255
1034 222 249 256
1035 227 249 250
1036 227 321 323
1037 227 321 324
1038 227 321 325
1039 243 301 307
1040 222 301 308
1041 227 301 302
1042 227 347 349
1043 227 347 350
1044 227 347 351
1045 222 599 600
1046 227 599 605
1047 227 599 604
1048 243 599 603
1049 227 451 453
1050 227 451 454
1051 227 451 455
1052 227 308 310
1053 227 308 311
1054 227 308 312
1055 222 300 301
1056 227 300 306
1057 227 300 305
1058 243 300 304
1059 345 381 382
1060 333 381 387
1061 345 381 385
1062 227 256 258
1063 227 256 259
1064 227 256 260
1065 243 392 398
1066 222 392 399
1067 227 392 393
1068 243 951 957
1069 222 951 958
1070 227 951 952
1071 345 225 226
1072 333 225 231
1073 345 225 229
1074 243 691 697
1075 222 691 698
1076 227 691 692
1077 345 251 252
1078 333 251 257
1079 345 251 255
1080 222 872 873
1081 227 872 878
1082 227 872 877
1083 243 872 876
1084 222 586 587
1085 227 586 592
1086 227 586 591
1087 243 586 590
1088 222 378 379
1089 227 378 384
1090 227 378 383
1091 243 378 382
1092 222 248 249
1093 227 248 254
1094 227 248 253
1095 243 248 252
1096 345 927 928
1097 333 927 933
1098 345 927 931
1099 243 873 879
1100 222 873 880
1101 227 873 874
1102 222 859 860
1103 227 859 865
1104 227 859 864
1105 243 859 863
1106 222 391 392
1107 227 391 397
1108 227 391 396
1109 243 391 395
1110 227 698 700
1111 227 698 701
1112 227 698 702
1113 345 394 395
1114 333 394 400
1115 345 394 398
1116 243 444 450
1117 222 444 451
1118 227 444 445
1119 227 607 609
1120 227 607 610
1121 227 607 611
1122 222 664 665
1123 227 664 670
1124 227 664 669
1125 243 664 668
1126 227 594 596
1127 227 594 597
1128 227 594 598
1129 227 958 960
1130 227 958 961
1131 227 958 962
1132 345 1252 1253
1133 333 1252 1258
1134 345 1252 1256
1135 222 1054 1055
1136 227 1054 1060
1137 227 1054 1059
1138 243 1054 1058
1139 243 340 346
1140 222 340 347
1141 227 340 341
1142 227 243 245
1143 227 243 246
1144 227 243 247
1145 243 899 905
1146 222 899 906
1147 227 899 900
1148 222 989 990
1149 227 989 995
1150 227 989 994
1151 243 989 993
1152 227 217 219
1153 227 217 220
1154 227 217 221
1155 222 716 717
1156 227 716 722
1157 227 716 721
1158 243 716 720
1159 222 1119 1120
1160 227 1119 1125
1161 227 1119 1124
1162 243 1119 1123
1163 227 1244 1246
1164 227 1244 1247
1165 227 1244 1248
1166 222 521 522
1167 227 521 527
1168 227 521 526
1169 243 521 525
1170 345 966 967
1171 333 966 972
1172 345 966 970
1173 243 1237 1243
1174 222 1237 1244
1175 227 1237 1238
1176 345 992 993
1177 333 992 998
1178 345 992 996
1179 243 1263 1269
1180 222 1263 1270
1181 227 1263 1264
1182 222 898 899
1183 227 898 904
1184 227 898 903
1185 243 898 902
1186 345 1239 1240
1187 333 1239 1245
1188 345 1239 1243
1189 345 706 707
1190 333 706 712
1191 345 706 710
1192 243 2 8
1193 222 2 9
1194 227 2 3
1195 227 1192 1194
1196 227 1192 1195
1197 227 1192 1196
1198 243 314 320
1199 222 314 321
1200 227 314 315
1201 243 1185 1191
1202 222 1185 1192
1203 227 1185 1186
1204 243 522 528
1205 222 522 529
1206 227 522 523
1207 345 615 616
1208 333 615 621
1209 345 615 619
1210 227 9 11
1211 227 9 12
1212 227 9 13
1213 222 1197 1198
1214 227 1197 1203
1215 227 1197 1202
1216 243 1197 1201
1217 227 1127 1129
1218 227 1127 1130
1219 227 1127 1131
1220 222 612 613
1221 227 612 618
1222 227 612 617
1223 243 612 616
1224 227 724 726
1225 227 724 727
1226 227 724 728
1227 222 313 314
1228 227 313 319
1229 227 313 318
1230 243 313 317
1231 222 1262 1263
1232 227 1262 1268
1233 227 1262 1267
1234 243 1262 1266
1235 227 906 908
1236 227 906 909
1237 227 906 910
1238 345 719 720
1239 333 719 725
1240 345 719 723
1241 345 316 317
1242 333 316 322
1243 345 316 320
1244 227 1270 1272
1245 227 1270 1273
1246 227 1270 1274
1247 243 1198 1204
1248 222 1198 1205
1249 227 1198 1199
1250 345 576 577
1251 333 576 582
1252 345 576 580
1253 345 1187 1188
1254 333 1187 1193
1255 345 1187 1191
1256 222 1236 1237
1257 227 1236 1242
1258 227 1236 1241
1259 243 1236 1240
1260 227 529 531
1261 227 529 532
1262 227 529 533
1263 227 997 999
1264 227 997 1000
1265 227 997 1001
1266 345 524 525
1267 333 524 530
1268 345 524 528
1269 243 717 723
1270 222 717 724
1271 227 717 718
1272 345 238 239
1273 333 238 244
1274 345 238 242
1275 345 901 902
1276 333 901 907
1277 345 901 905
1278 243 990 996
1279 222 990 997
1280 227 990 991
1281 243 236 242
1282 222 236 243
1283 227 236 237
1284 227 1205 1207
1285 227 1205 1208
1286 227 1205 1209
1287 222 1184 1185
1288 227 1184 1190
1289 227 1184 1189
1290 243 1184 1188
1291 345 589 590
1292 333 589 595
1293 345 589 593
1294 227 971 973
1295 227 971 974
1296 227 971 975
1297 222 703 704
1298 227 703 709
1299 227 703 708
1300 243 703 707

Angles

1 679 119 118 124
2 679 119 118 123
3 692 119 118 122
4 1073 123 118 124
5 1088 122 118 123
6 1088 122 118 124
7 974 534 538 537
8 974 157 161 160
9 679 93 92 98
10 679 93 92 97
11 692 93 92 96
12 1073 97 92 98
13 1088 96 92 97
14 1088 96 92 98
15 675 1106 1107 1114
16 679 1106 1107 1108
17 679 1108 1107 1114
18 692 1106 1107 1113
19 692 1113 1107 1114
20 1088 1108 1107 1113
21 679 652 659 661
22 679 652 659 662
23 679 652 659 663
24 1073 661 659 662
25 1073 661 659 663
26 1073 662 659 663
27 679 80 79 85
28 679 80 79 84
29 692 80 79 83
30 1073 84 79 85
31 1088 83 79 84
32 1088 83 79 85
33 679 1107 1106 1112
34 679 1107 1106 1111
35 692 1107 1106 1110
36 1073 1111 1106 1112
37 1088 1110 1106 1111
38 1088 1110 1106 1112
39 974 119 125 121
40 679 639 638 644
41 679 639 638 643
42 692 639 638 642
43 1073 643 638 644
44 1088 642 638 643
45 1088 642 638 644
46 675 820 821 828
47 679 820 821 822
48 679 822 821 828
49 692 820 821 827
50 692 827 821 828
51 1088 822 821 827
52 974 1107 1113 1109
53 974 470 476 472
54 974 651 655 654
55 974 496 502 498
56 679 93 100 102
57 679 93 100 103
58 679 93 100 104
59 1073 102 100 103
60 1073 102 100 104
61 1073 103 100 104
62 679 821 828 830
63 679 821 828 831
64 679 821 828 832
65 1073 830 828 831
66 1073 830 828 832
67 1073 831 828 832
68 974 625 629 628
69 679 496 495 501
70 679 496 495 500
71 692 496 495 499
72 1073 500 495 501
73 1088 499 495 500
74 1088 499 495 501
75 679 652 651 657
76 679 652 651 656
77 692 652 651 655
78 1073 656 651 657
79 1088 655 651 656
80 1088 655 651 657
81 974 638 642 641
82 974 118 122 121
83 974 626 632 628
84 974 1106 1110 1109
85 675 482 483 490
86 679 482 483 484
87 679 484 483 490
88 692 482 483 489
89 692 489 483 490
90 1088 484 483 489
91 679 483 482 488
92 679 483 482 487
93 692 483 482 486
94 1073 487 482 488
95 1088 486 482 487
96 1088 486 482 488
97 679 483 490 492
98 679 483 490 493
99 679 483 490 494
100 1073 492 490 493
101 1073 492 490 494
102 1073 493 490 494
103 675 495 496 503
104 679 495 496 497
105 679 497 496 503
106 692 495 496 502
107 692 502 496 503
108 1088 497 496 502
109 675 651 652 659
110 679 651 652 653
111 679 653 652 659
112 692 651 652 658
113 692 658 652 659
114 1088 653 652 658
115 675 534 535 542
116 679 534 535 536
117 679 536 535 542
118 692 534 535 541
119 692 541 535 542
120 1088 536 535 541
121 675 92 93 100
122 679 92 93 94
123 679 94 93 100
124 692 92 93 99
125 692 99 93 100
126 1088 94 93 99
127 679 470 469 475
128 679 470 469 474
129 692 470 469 473
130 1073 474 469 475
131 1088 473 469 474
132 1088 473 469 475
133 679 158 157 163
134 679 158 157 162
135 692 158 157 161
136 1073 162 157 163
137 1088 161 157 162
138 1088 161 157 163
139 679 821 820 826
140 679 821 820 825
141 692 821 820 824
142 1073 825 820 826
143 1088 824 820 825
144 1088 824 820 826
145 974 535 541 537
146 679 626 625 631
147 679 626 625 630
148 692 626 625 629
149 1073 630 625 631
150 1088 629 625 630
151 1088 629 625 631
152 675 79 80 87
153 679 79 80 81
154 679 81 80 87
155 692 79 80 86
156 692 86 80 87
157 1088 81 80 86
158 974 483 489 485
159 974 431 437 433
160 974 430 434 433
161 974 820 824 823
162 675 469 470 477
163 679 469 470 471
164 679 471 470 477
165 692 469 470 476
166 692 476 470 477
167 1088 471 470 476
168 675 625 626 633
169 679 625 626 627
170 679 627 626 633
171 692 625 626 632
172 692 632 626 633
173 1088 627 626 632
174 679 470 477 479
175 679 470 477 480
176 679 470 477 481
177 1073 479 477 480
178 1073 479 477 481
179 1073 480 477 481
180 974 821 827 823
181 675 118 119 126
182 679 118 119 120
183 679 120 119 126
184 692 118 119 125
185 692 125 119 126
186 1088 120 119 125
187 974 495 499 498
188 679 1107 1114 1116
189 679 1107 1114 1117
190 679 1107 1114 1118
191 1073 1116 1114 1117
192 1073 1116 1114 1118
193 1073 1117 1114 1118
194 679 431 430 436
195 679 431 430 435
196 692 431 430 434
197 1073 435 430 436
198 1088 434 430 435
199 1088 434 430 436
200 675 430 431 438
201 679 430 431 432
202 679 432 431 438
203 692 430 431 437
204 692 437 431 438
205 1088 432 431 437
206 675 638 639 646
207 679 638 639 640
208 679 640 639 646
209 692 638 639 645
210 692 645 639 646
211 1088 640 639 645
212 679 353 360 362
213 679 353 360 363
214 679 353 360 364
215 1073 362 360 363
216 1073 362 360 364
217 1073 363 360 364
218 679 80 87 89
219 679 80 87 90
220 679 80 87 91
221 1073 89 87 90
222 1073 89 87 91
223 1073 90 87 91
224 974 652 658 654
225 974 417 421 420
226 679 119 126 128
227 679 119 126 129
228 679 119 126 130
229 1073 128 126 129
230 1073 128 126 130
231 1073 129 126 130
232 974 664 668 667
233 679 509 516 518
234 679 509 516 519
235 679 509 516 520
236 1073 518 516 519
237 1073 518 516 520
238 1073 519 516 520
239 679 548 555 557
240 679 548 555 558
241 679 548 555 559
242 1073 557 555 558
243 1073 557 555 559
244 1073 558 555 559
245 675 755 756 763
246 679 755 756 757
247 679 757 756 763
248 692 755 756 762
249 692 762 756 763
250 1088 757 756 762
251 974 1210 1214 1213
252 675 547 548 555
253 679 547 548 549
254 679 549 548 555
255 692 547 548 554
256 692 554 548 555
257 1088 549 548 554
258 974 93 99 95
259 679 1094 1093 1099
260 679 1094 1093 1098
261 692 1094 1093 1097
262 1073 1098 1093 1099
263 1088 1097 1093 1098
264 1088 1097 1093 1099
265 679 158 165 167
266 679 158 165 168
267 679 158 165 169
268 1073 167 165 168
269 1073 167 165 169
270 1073 168 165 169
271 974 1211 1217 1213
272 679 1172 1179 1181
273 679 1172 1179 1182
274 679 1172 1179 1183
275 1073 1181 1179 1182
276 1073 1181 1179 1183
277 1073 1182 1179 1183
278 974 27 31 30
279 679 1276 1283 1285
280 679 1276 1283 1286
281 679 1276 1283 1287
282 1073 1285 1283 1286
283 1073 1285 1283 1287
284 1073 1286 1283 1287
285 679 275 274 280
286 679 275 274 279
287 692 275 274 278
288 1073 279 274 280
289 1088 278 274 279
290 1088 278 274 280
291 679 171 170 176
292 679 171 170 175
293 692 171 170 174
294 1073 175 170 176
295 1088 174 170 175
296 1088 174 170 176
297 679 457 456 462
298 679 457 456 461
299 692 457 456 460
300 1073 461 456 462
301 1088 460 456 461
302 1088 460 456 462
303 974 275 281 277
304 679 756 763 765
305 679 756 763 766
306 679 756 763 767
307 1073 765 763 766
308 1073 765 763 767
309 1073 766 763 767
310 679 275 282 284
311 679 275 282 285
312 679 275 282 286
313 1073 284 282 285
314 1073 284 282 286
315 1073 285 282 286
316 974 1172 1178 1174
317 974 327 333 329
318 974 1094 1100 1096
319 974 508 512 511
320 675 1210 1211 1218
321 679 1210 1211 1212
322 679 1212 1211 1218
323 692 1210 1211 1217
324 692 1217 1211 1218
325 1088 1212 1211 1217
326 679 977 976 982
327 679 977 976 981
328 692 977 976 980
329 1073 981 976 982
330 1088 980 976 981
331 1088 980 976 982
332 974 171 177 173
333 679 1211 1210 1216
334 679 1211 1210 1215
335 692 1211 1210 1214
336 1073 1215 1210 1216
337 1088 1214 1210 1215
338 1088 1214 1210 1216
339 675 1093 1094 1101
340 679 1093 1094 1095
341 679 1095 1094 1101
342 692 1093 1094 1100
343 692 1100 1094 1101
344 1088 1095 1094 1100
345 679 1276 1275 1281
346 679 1276 1275 1280
347 692 1276 1275 1279
348 1073 1280 1275 1281
349 1088 1279 1275 1280
350 1088 1279 1275 1281
351 974 1263 1269 1265
352 675 27 28 35
353 679 27 28 29
354 679 29 28 35
355 692 27 28 34
356 692 34 28 35
357 1088 29 28 34
358 679 15 22 24
359 679 15 22 25
360 679 15 22 26
361 1073 24 22 25
362 1073 24 22 26
363 1073 25 22 26
364 679 626 633 635
365 679 626 633 636
366 679 626 633 637
367 1073 635 633 636
368 1073 635 633 637
369 1073 636 633 637
370 679 28 35 37
371 679 28 35 38
372 679 28 35 39
373 1073 37 35 38
374 1073 37 35 39
375 1073 38 35 39
376 679 977 984 986
377 679 977 984 987
378 679 977 984 988
379 1073 986 984 987
380 1073 986 984 988
381 1073 987 984 988
382 675 1275 1276 1283
383 679 1275 1276 1277
384 679 1277 1276 1283
385 692 1275 1276 1282
386 692 1282 1276 1283
387 1088 1277 1276 1282
388 974 457 463 459
389 974 509 515 511
390 974 158 164 160
391 675 274 275 282
392 679 274 275 276
393 679 276 275 282
394 692 274 275 281
395 692 281 275 282
396 1088 276 275 281
397 675 1171 1172 1179
398 679 1171 1172 1173
399 679 1173 1172 1179
400 692 1171 1172 1178
401 692 1178 1172 1179
402 1088 1173 1172 1178
403 974 1276 1282 1278
404 679 171 178 180
405 679 171 178 181
406 679 171 178 182
407 1073 180 178 181
408 1073 180 178 182
409 1073 181 178 182
410 679 28 27 33
411 679 28 27 32
412 692 28 27 31
413 1073 32 27 33
414 1088 31 27 32
415 1088 31 27 33
416 675 976 977 984
417 679 976 977 978
418 679 978 977 984
419 692 976 977 983
420 692 983 977 984
421 1088 978 977 983
422 974 15 21 17
423 679 1094 1101 1103
424 679 1094 1101 1104
425 679 1094 1101 1105
426 1073 1103 1101 1104
427 1073 1103 1101 1105
428 1073 1104 1101 1105
429 974 274 278 277
430 974 756 762 758
431 974 170 174 173
432 974 28 34 30
433 675 157 158 165
434 679 157 158 159
435 679 159 158 165
436 692 157 158 164
437 692 164 158 165
438 1088 159 158 164
439 675 456 457 464
440 679 456 457 458
441 679 458 457 464
442 692 456 457 463
443 692 463 457 464
444 1088 458 457 463
445 974 1093 1097 1096
446 679 1211 1218 1220
447 679 1211 1218 1221
448 679 1211 1218 1222
449 1073 1220 1218 1221
450 1073 1220 1218 1222
451 1073 1221 1218 1222
452 675 508 509 516
453 679 508 509 510
454 679 510 509 516
455 692 508 509 515
456 692 515 509 516
457 1088 510 509 515
458 679 509 508 514
459 679 509 508 513
460 692 509 508 512
461 1073 513 508 514
462 1088 512 508 513
463 1088 512 508 514
464 974 1275 1279 1278
465 675 170 171 178
466 679 170 171 172
467 679 172 171 178
468 692 170 171 177
469 692 177 171 178
470 1088 172 171 177
471 974 469 473 472
472 679 197 196 202
473 679 197 196 201
474 692 197 196 200
475 1073 201 196 202
476 1088 200 196 201
477 1088 200 196 202
478 679 132 131 137
479 679 132 131 136
480 692 132 131 135
481 1073 136 131 137
482 1088 135 131 136
483 1088 135 131 137
484 679 925 932 934
485 679 925 932 935
486 679 925 932 936
487 1073 934 932 935
488 1073 934 932 936
489 1073 935 932 936
490 679 1159 1158 1164
491 679 1159 1158 1163
492 692 1159 1158 1162
493 1073 1163 1158 1164
494 1088 1162 1158 1163
495 1088 1162 1158 1164
496 974 795 801 797
497 974 794 798 797
498 675 196 197 204
499 679 196 197 198
500 679 198 197 204
501 692 196 197 203
502 692 203 197 204
503 1088 198 197 203
504 974 1249 1253 1252
505 675 261 262 269
506 679 261 262 263
507 679 263 262 269
508 692 261 262 268
509 692 268 262 269
510 1088 263 262 268
511 974 131 135 134
512 679 886 885 891
513 679 886 885 890
514 692 886 885 889
515 1073 890 885 891
516 1088 889 885 890
517 1088 889 885 891
518 675 1028 1029 1036
519 679 1028 1029 1030
520 679 1030 1029 1036
521 692 1028 1029 1035
522 692 1035 1029 1036
523 1088 1030 1029 1035
524 974 79 83 82
525 974 352 356 355
526 974 639 645 641
527 679 132 139 141
528 679 132 139 142
529 679 132 139 143
530 1073 141 139 142
531 1073 141 139 143
532 1073 142 139 143
533 974 665 671 667
534 974 730 736 732
535 974 886 892 888
536 974 92 96 95
537 675 664 665 672
538 679 664 665 666
539 679 666 665 672
540 692 664 665 671
541 692 671 665 672
542 1088 666 665 671
543 974 418 424 420
544 974 1250 1256 1252
545 974 353 359 355
546 974 145 151 147
547 974 1159 1165 1161
548 679 262 261 267
549 679 262 261 266
550 692 262 261 265
551 1073 266 261 267
552 1088 265 261 266
553 1088 265 261 267
554 675 1158 1159 1166
555 679 1158 1159 1160
556 679 1160 1159 1166
557 692 1158 1159 1165
558 692 1165 1159 1166
559 1088 1160 1159 1165
560 974 132 138 134
561 679 795 794 800
562 679 795 794 799
563 692 795 794 798
564 1073 799 794 800
565 1088 798 794 799
566 1088 798 794 800
567 974 834 840 836
568 974 365 369 368
569 679 860 867 869
570 679 860 867 870
571 679 860 867 871
572 1073 869 867 870
573 1073 869 867 871
574 1073 870 867 871
575 974 366 372 368
576 679 1159 1166 1168
577 679 1159 1166 1169
578 679 1159 1166 1170
579 1073 1168 1166 1169
580 1073 1168 1166 1170
581 1073 1169 1166 1170
582 675 924 925 932
583 679 924 925 926
584 679 926 925 932
585 692 924 925 931
586 692 931 925 932
587 1088 926 925 931
588 675 352 353 360
589 679 352 353 354
590 679 354 353 360
591 692 352 353 359
592 692 359 353 360
593 1088 354 353 359
594 974 860 866 862
595 675 833 834 841
596 679 833 834 835
597 679 835 834 841
598 692 833 834 840
599 692 840 834 841
600 1088 835 834 840
601 679 639 646 648
602 679 639 646 649
603 679 639 646 650
604 1073 648 646 649
605 1073 648 646 650
606 1073 649 646 650
607 679 834 833 839
608 679 834 833 838
609 692 834 833 837
610 1073 838 833 839
611 1088 837 833 838
612 1088 837 833 839
613 679 1029 1028 1034
614 679 1029 1028 1033
615 692 1029 1028 1032
616 1073 1033 1028 1034
617 1088 1032 1028 1033
618 1088 1032 1028 1034
619 974 833 837 836
620 974 885 889 888
621 974 261 265 264
622 679 1250 1257 1259
623 679 1250 1257 1260
624 679 1250 1257 1261
625 1073 1259 1257 1260
626 1073 1259 1257 1261
627 1073 1260 1257 1261
628 974 197 203 199
629 679 262 269 271
630 679 262 269 272
631 679 262 269 273
632 1073 271 269 272
633 1073 271 269 273
634 1073 272 269 273
635 974 262 268 264
636 974 729 733 732
637 679 1029 1036 1038
638 679 1029 1036 1039
639 679 1029 1036 1040
640 1073 1038 1036 1039
641 1073 1038 1036 1040
642 1073 1039 1036 1040
643 679 834 841 843
644 679 834 841 844
645 679 834 841 845
646 1073 843 841 844
647 1073 843 841 845
648 1073 844 841 845
649 675 131 132 139
650 679 131 132 133
651 679 133 132 139
652 692 131 132 138
653 692 138 132 139
654 1088 133 132 138
655 675 1249 1250 1257
656 679 1249 1250 1251
657 679 1251 1250 1257
658 692 1249 1250 1256
659 692 1256 1250 1257
660 1088 1251 1250 1256
661 675 144 145 152
662 679 144 145 146
663 679 146 145 152
664 692 144 145 151
665 692 151 145 152
666 1088 146 145 151
667 974 80 86 82
668 679 1250 1249 1255
669 679 1250 1249 1254
670 692 1250 1249 1253
671 1073 1254 1249 1255
672 1088 1253 1249 1254
673 1088 1253 1249 1255
674 974 1158 1162 1161
675 679 145 152 154
676 679 145 152 155
677 679 145 152 156
678 1073 154 152 155
679 1073 154 152 156
680 1073 155 152 156
681 675 794 795 802
682 679 794 795 796
683 679 796 795 802
684 692 794 795 801
685 692 801 795 802
686 1088 796 795 801
687 679 197 204 206
688 679 197 204 207
689 679 197 204 208
690 1073 206 204 207
691 1073 206 204 208
692 1073 207 204 208
693 679 886 893 895
694 679 886 893 896
695 679 886 893 897
696 1073 895 893 896
697 1073 895 893 897
698 1073 896 893 897
699 679 925 924 930
700 679 925 924 929
701 692 925 924 928
702 1073 929 924 930
703 1088 928 924 929
704 1088 928 924 930
705 974 196 200 199
706 675 417 418 425
707 679 417 418 419
708 679 419 418 425
709 692 417 418 424
710 692 424 418 425
711 1088 419 418 424
712 679 418 417 423
713 679 418 417 422
714 692 418 417 421
715 1073 422 417 423
716 1088 421 417 422
717 1088 421 417 423
718 675 859 860 867
719 679 859 860 861
720 679 861 860 867
721 692 859 860 866
722 692 866 860 867
723 1088 861 860 866
724 675 885 886 893
725 679 885 886 887
726 679 887 886 893
727 692 885 886 892
728 692 892 886 893
729 1088 887 886 892
730 679 353 352 358
731 679 353 352 357
732 692 353 352 356
733 1073 357 352 358
734 1088 356 352 357
735 1088 356 352 358
736 679 418 425 427
737 679 418 425 428
738 679 418 425 429
739 1073 427 425 428
740 1073 427 425 429
741 1073 428 425 429
742 679 665 672 674
743 679 665 672 675
744 679 665 672 676
745 1073 674 672 675
746 1073 674 672 676
747 1073 675 672 676
748 679 730 729 735
749 679 730 729 734
750 692 730 729 733
751 1073 734 729 735
752 1088 733 729 734
753 1088 733 729 735
754 679 561 568 570
755 679 561 568 571
756 679 561 568 572
757 1073 570 568 571
758 1073 570 568 572
759 1073 571 568 572
760 675 209 210 217
761 679 209 210 211
762 679 211 210 217
763 692 209 210 216
764 692 216 210 217
765 1088 211 210 216
766 675 677 678 685
767 679 677 678 679
768 679 679 678 685
769 692 677 678 684
770 692 684 678 685
771 1088 679 678 684
772 974 1289 1295 1291
773 974 1198 1204 1200
774 679 288 287 293
775 679 288 287 292
776 692 288 287 291
777 1073 292 287 293
778 1088 291 287 292
779 1088 291 287 293
780 679 769 768 774
781 679 769 768 773
782 692 769 768 772
783 1073 773 768 774
784 1088 772 768 773
785 1088 772 768 774
786 679 327 326 332
787 679 327 326 331
788 692 327 326 330
789 1073 331 326 332
790 1088 330 326 331
791 1088 330 326 332
792 974 210 216 212
793 675 326 327 334
794 679 326 327 328
795 679 328 327 334
796 692 326 327 333
797 692 333 327 334
798 1088 328 327 333
799 974 911 915 914
800 679 678 677 683
801 679 678 677 682
802 692 678 677 681
803 1073 682 677 683
804 1088 681 677 682
805 1088 681 677 683
806 974 288 294 290
807 675 1132 1133 1140
808 679 1132 1133 1134
809 679 1134 1133 1140
810 692 1132 1133 1139
811 692 1139 1133 1140
812 1088 1134 1133 1139
813 974 1029 1035 1031
814 974 209 213 212
815 974 704 710 706
816 974 1171 1175 1174
817 974 1 5 4
818 679 912 911 917
819 679 912 911 916
820 692 912 911 915
821 1073 916 911 917
822 1088 915 911 916
823 1088 915 911 917
824 679 288 295 297
825 679 288 295 298
826 679 288 295 299
827 1073 297 295 298
828 1073 297 295 299
829 1073 298 295 299
830 974 678 684 680
831 675 14 15 22
832 679 14 15 16
833 679 16 15 22
834 692 14 15 21
835 692 21 15 22
836 1088 16 15 21
837 974 287 291 290
838 679 912 919 921
839 679 912 919 922
840 679 912 919 923
841 1073 921 919 922
842 1073 921 919 923
843 1073 922 919 923
844 679 795 802 804
845 679 795 802 805
846 679 795 802 806
847 1073 804 802 805
848 1073 804 802 806
849 1073 805 802 806
850 974 1288 1292 1291
851 679 210 209 215
852 679 210 209 214
853 692 210 209 213
854 1073 214 209 215
855 1088 213 209 214
856 1088 213 209 215
857 675 911 912 919
858 679 911 912 913
859 679 913 912 919
860 692 911 912 918
861 692 918 912 919
862 1088 913 912 918
863 679 561 560 566
864 679 561 560 565
865 692 561 560 564
866 1073 565 560 566
867 1088 564 560 565
868 1088 564 560 566
869 679 1172 1171 1177
870 679 1172 1171 1176
871 692 1172 1171 1175
872 1073 1176 1171 1177
873 1088 1175 1171 1176
874 1088 1175 1171 1177
875 679 1289 1288 1294
876 679 1289 1288 1293
877 692 1289 1288 1292
878 1073 1293 1288 1294
879 1088 1292 1288 1293
880 1088 1292 1288 1294
881 675 560 561 568
882 679 560 561 562
883 679 562 561 568
884 692 560 561 567
885 692 567 561 568
886 1088 562 561 567
887 974 1132 1136 1135
888 974 912 918 914
889 679 678 685 687
890 679 678 685 688
891 679 678 685 689
892 1073 687 685 688
893 1073 687 685 689
894 1073 688 685 689
895 679 1289 1296 1298
896 679 1289 1296 1299
897 679 1289 1296 1300
898 1073 1298 1296 1299
899 1073 1298 1296 1300
900 1073 1299 1296 1300
901 679 1133 1132 1138
902 679 1133 1132 1137
903 692 1133 1132 1136
904 1073 1137 1132 1138
905 1088 1136 1132 1137
906 1088 1136 1132 1138
907 679 327 334 336
908 679 327 334 337
909 679 327 334 338
910 1073 336 334 337
911 1073 336 334 338
912 1073 337 334 338
913 679 769 776 778
914 679 769 776 779
915 679 769 776 780
916 1073 778 776 779
917 1073 778 776 780
918 1073 779 776 780
919 974 769 775 771
920 679 15 14 20
921 679 15 14 19
922 692 15 14 18
923 1073 19 14 20
924 1088 18 14 19
925 1088 18 14 20
926 974 1133 1139 1135
927 675 768 769 776
928 679 768 769 770
929 679 770 769 776
930 692 768 769 775
931 692 775 769 776
932 1088 770 769 775
933 679 1133 1140 1142
934 679 1133 1140 1143
935 679 1133 1140 1144
936 1073 1142 1140 1143
937 1073 1142 1140 1144
938 1073 1143 1140 1144
939 974 768 772 771
940 974 677 681 680
941 679 145 144 150
942 679 145 144 149
943 692 145 144 148
944 1073 149 144 150
945 1088 148 144 149
946 1088 148 144 150
947 675 287 288 295
948 679 287 288 289
949 679 289 288 295
950 692 287 288 294
951 692 294 288 295
952 1088 289 288 294
953 675 1288 1289 1296
954 679 1288 1289 1290
955 679 1290 1289 1296
956 692 1288 1289 1295
957 692 1295 1289 1296
958 1088 1290 1289 1295
959 679 730 737 739
960 679 730 737 740
961 679 730 737 741
962 1073 739 737 740
963 1073 739 737 741
964 1073 740 737 741
965 679 2 1 7
966 679 2 1 6
967 692 2 1 5
968 1073 6 1 7
969 1088 5 1 6
970 1088 5 1 7
971 679 457 464 466
972 679 457 464 467
973 679 457 464 468
974 1073 466 464 467
975 1073 466 464 468
976 1073 467 464 468
977 974 326 330 329
978 974 144 148 147
979 679 236 235 241
980 679 236 235 240
981 692 236 235 239
982 1073 240 235 241
983 1088 239 235 240
984 1088 239 235 241
985 974 1197 1201 1200
986 675 703 704 711
987 679 703 704 705
988 679 705 704 711
989 692 703 704 710
990 692 710 704 711
991 1088 705 704 710
992 974 235 239 238
993 974 14 18 17
994 974 1028 1032 1031
995 679 704 711 713
996 679 704 711 714
997 679 704 711 715
998 1073 713 711 714
999 1073 713 711 715
1000 1073 714 711 715
1001 675 729 730 737
1002 679 729 730 731
1003 679 731 730 737
1004 692 729 730 736
1005 692 736 730 737
1006 1088 731 730 736
1007 675 807 808 815
1008 679 807 808 809
1009 679 809 808 815
1010 692 807 808 814
1011 692 814 808 815
1012 1088 809 808 814
1013 675 1015 1016 1023
1014 679 1015 1016 1017
1015 679 1017 1016 1023
1016 692 1015 1016 1022
1017 692 1022 1016 1023
1018 1088 1017 1016 1022
1019 974 1016 1022 1018
1020 974 847 853 849
1021 974 404 408 407
1022 679 1016 1015 1021
1023 679 1016 1015 1020
1024 692 1016 1015 1019
1025 1073 1020 1015 1021
1026 1088 1019 1015 1020
1027 1088 1019 1015 1021
1028 974 405 411 407
1029 679 1055 1062 1064
1030 679 1055 1062 1065
1031 679 1055 1062 1066
1032 1073 1064 1062 1065
1033 1073 1064 1062 1066
1034 1073 1065 1062 1066
1035 974 807 811 810
1036 675 404 405 412
1037 679 404 405 406
1038 679 406 405 412
1039 692 404 405 411
1040 692 411 405 412
1041 1088 406 405 411
1042 679 67 66 72
1043 679 67 66 71
1044 692 67 66 70
1045 1073 71 66 72
1046 1088 70 66 71
1047 1088 70 66 72
1048 679 431 438 440
1049 679 431 438 441
1050 679 431 438 442
1051 1073 440 438 441
1052 1073 440 438 442
1053 1073 441 438 442
1054 679 496 503 505
1055 679 496 503 506
1056 679 496 503 507
1057 1073 505 503 506
1058 1073 505 503 507
1059 1073 506 503 507
1060 675 1054 1055 1062
1061 679 1054 1055 1056
1062 679 1056 1055 1062
1063 692 1054 1055 1061
1064 692 1061 1055 1062
1065 1088 1056 1055 1061
1066 974 1081 1087 1083
1067 679 535 542 544
1068 679 535 542 545
1069 679 535 542 546
1070 1073 544 542 545
1071 1073 544 542 546
1072 1073 545 542 546
1073 679 405 412 414
1074 679 405 412 415
1075 679 405 412 416
1076 1073 414 412 415
1077 1073 414 412 416
1078 1073 415 412 416
1079 675 66 67 74
1080 679 66 67 68
1081 679 68 67 74
1082 692 66 67 73
1083 692 73 67 74
1084 1088 68 67 73
1085 974 1002 1006 1005
1086 974 846 850 849
1087 679 1003 1002 1008
1088 679 1003 1002 1007
1089 692 1003 1002 1006
1090 1073 1007 1002 1008
1091 1088 1006 1002 1007
1092 1088 1006 1002 1008
1093 974 339 343 342
1094 679 847 854 856
1095 679 847 854 857
1096 679 847 854 858
1097 1073 856 854 857
1098 1073 856 854 858
1099 1073 857 854 858
1100 679 1081 1088 1090
1101 679 1081 1088 1091
1102 679 1081 1088 1092
1103 1073 1090 1088 1091
1104 1073 1090 1088 1092
1105 1073 1091 1088 1092
1106 679 808 807 813
1107 679 808 807 812
1108 692 808 807 811
1109 1073 812 807 813
1110 1088 811 807 812
1111 1088 811 807 813
1112 679 938 937 943
1113 679 938 937 942
1114 692 938 937 941
1115 1073 942 937 943
1116 1088 941 937 942
1117 1088 941 937 943
1118 974 808 814 810
1119 679 106 105 111
1120 679 106 105 110
1121 692 106 105 109
1122 1073 110 105 111
1123 1088 109 105 110
1124 1088 109 105 111
1125 974 1055 1061 1057
1126 675 1002 1003 1010
1127 679 1002 1003 1004
1128 679 1004 1003 1010
1129 692 1002 1003 1009
1130 692 1009 1003 1010
1131 1088 1004 1003 1009
1132 675 105 106 113
1133 679 105 106 107
1134 679 107 106 113
1135 692 105 106 112
1136 692 112 106 113
1137 1088 107 106 112
1138 679 1081 1080 1086
1139 679 1081 1080 1085
1140 692 1081 1080 1084
1141 1073 1085 1080 1086
1142 1088 1084 1080 1085
1143 1088 1084 1080 1086
1144 675 846 847 854
1145 679 846 847 848
1146 679 848 847 854
1147 692 846 847 853
1148 692 853 847 854
1149 1088 848 847 853
1150 679 379 386 388
1151 679 379 386 389
1152 679 379 386 390
1153 1073 388 386 389
1154 1073 388 386 390
1155 1073 389 386 390
1156 974 1015 1019 1018
1157 974 340 346 342
1158 679 67 74 76
1159 679 67 74 77
1160 679 67 74 78
1161 1073 76 74 77
1162 1073 76 74 78
1163 1073 77 74 78
1164 974 482 486 485
1165 679 847 846 852
1166 679 847 846 851
1167 692 847 846 850
1168 1073 851 846 852
1169 1088 850 846 851
1170 1088 850 846 852
1171 679 340 339 345
1172 679 340 339 344
1173 692 340 339 343
1174 1073 344 339 345
1175 1088 343 339 344
1176 1088 343 339 345
1177 974 938 944 940
1178 679 1146 1153 1155
1179 679 1146 1153 1156
1180 679 1146 1153 1157
1181 1073 1155 1153 1156
1182 1073 1155 1153 1157
1183 1073 1156 1153 1157
1184 679 106 113 115
1185 679 106 113 116
1186 679 106 113 117
1187 1073 115 113 116
1188 1073 115 113 117
1189 1073 116 113 117
1190 679 405 404 410
1191 679 405 404 409
1192 692 405 404 408
1193 1073 409 404 410
1194 1088 408 404 409
1195 1088 408 404 410
1196 974 105 109 108
1197 974 106 112 108
1198 974 67 73 69
1199 675 937 938 945
1200 679 937 938 939
1201 679 939 938 945
1202 692 937 938 944
1203 692 944 938 945
1204 1088 939 938 944
1205 675 1080 1081 1088
1206 679 1080 1081 1082
1207 679 1082 1081 1088
1208 692 1080 1081 1087
1209 692 1087 1081 1088
1210 1088 1082 1081 1087
1211 974 66 70 69
1212 679 1003 1010 1012
1213 679 1003 1010 1013
1214 679 1003 1010 1014
1215 1073 1012 1010 1013
1216 1073 1012 1010 1014
1217 1073 1013 1010 1014
1218 679 1016 1023 1025
1219 679 1016 1023 1026
1220 679 1016 1023 1027
1221 1073 1025 1023 1026
1222 1073 1025 1023 1027
1223 1073 1026 1023 1027
1224 974 937 941 940
1225 679 535 534 540
1226 679 535 534 539
1227 692 535 534 538
1228 1073 539 534 540
1229 1088 538 534 539
1230 1088 538 534 540
1231 974 1003 1009 1005
1232 679 366 373 375
1233 679 366 373 376
1234 679 366 373 377
1235 1073 375 373 376
1236 1073 375 373 377
1237 1073 376 373 377
1238 679 54 61 63
1239 679 54 61 64
1240 679 54 61 65
1241 1073 63 61 64
1242 1073 63 61 65
1243 1073 64 61 65
1244 974 1145 1149 1148
1245 675 183 184 191
1246 679 183 184 185
1247 679 185 184 191
1248 692 183 184 190
1249 692 190 184 191
1250 1088 185 184 190
1251 675 1145 1146 1153
1252 679 1145 1146 1147
1253 679 1147 1146 1153
1254 692 1145 1146 1152
1255 692 1152 1146 1153
1256 1088 1147 1146 1152
1257 675 742 743 750
1258 679 742 743 744
1259 679 744 743 750
1260 692 742 743 749
1261 692 749 743 750
1262 1088 744 743 749
1263 974 1080 1084 1083
1264 679 41 40 46
1265 679 41 40 45
1266 692 41 40 44
1267 1073 45 40 46
1268 1088 44 40 45
1269 1088 44 40 46
1270 974 1068 1074 1070
1271 679 1224 1231 1233
1272 679 1224 1231 1234
1273 679 1224 1231 1235
1274 1073 1233 1231 1234
1275 1073 1233 1231 1235
1276 1073 1234 1231 1235
1277 974 781 785 784
1278 679 1042 1049 1051
1279 679 1042 1049 1052
1280 679 1042 1049 1053
1281 1073 1051 1049 1052
1282 1073 1051 1049 1053
1283 1073 1052 1049 1053
1284 974 560 564 563
1285 679 613 620 622
1286 679 613 620 623
1287 679 613 620 624
1288 1073 622 620 623
1289 1073 622 620 624
1290 1073 623 620 624
1291 679 964 963 969
1292 679 964 963 968
1293 692 964 963 967
1294 1073 968 963 969
1295 1088 967 963 968
1296 1088 967 963 969
1297 974 742 746 745
1298 974 184 190 186
1299 974 574 580 576
1300 679 782 789 791
1301 679 782 789 792
1302 679 782 789 793
1303 1073 791 789 792
1304 1073 791 789 793
1305 1073 792 789 793
1306 974 40 44 43
1307 974 1223 1227 1226
1308 675 1223 1224 1231
1309 679 1223 1224 1225
1310 679 1225 1224 1231
1311 692 1223 1224 1230
1312 692 1230 1224 1231
1313 1088 1225 1224 1230
1314 974 976 980 979
1315 974 977 983 979
1316 679 1068 1067 1073
1317 679 1068 1067 1072
1318 692 1068 1067 1071
1319 1073 1072 1067 1073
1320 1088 1071 1067 1072
1321 1088 1071 1067 1073
1322 675 573 574 581
1323 679 573 574 575
1324 679 575 574 581
1325 692 573 574 580
1326 692 580 574 581
1327 1088 575 574 580
1328 974 782 788 784
1329 679 41 48 50
1330 679 41 48 51
1331 679 41 48 52
1332 1073 50 48 51
1333 1073 50 48 52
1334 1073 51 48 52
1335 974 743 749 745
1336 974 1224 1230 1226
1337 675 963 964 971
1338 679 963 964 965
1339 679 965 964 971
1340 692 963 964 970
1341 692 970 964 971
1342 1088 965 964 970
1343 679 1224 1223 1229
1344 679 1224 1223 1228
1345 692 1224 1223 1227
1346 1073 1228 1223 1229
1347 1088 1227 1223 1228
1348 1088 1227 1223 1229
1349 675 781 782 789
1350 679 781 782 783
1351 679 783 782 789
1352 692 781 782 788
1353 692 788 782 789
1354 1088 783 782 788
1355 679 782 781 787
1356 679 782 781 786
1357 692 782 781 785
1358 1073 786 781 787
1359 1088 785 781 786
1360 1088 785 781 787
1361 974 41 47 43
1362 675 40 41 48
1363 679 40 41 42
1364 679 42 41 48
1365 692 40 41 47
1366 692 47 41 48
1367 1088 42 41 47
1368 974 183 187 186
1369 679 574 573 579
1370 679 574 573 578
1371 692 574 573 577
1372 1073 578 573 579
1373 1088 577 573 578
1374 1088 577 573 579
1375 679 184 183 189
1376 679 184 183 188
1377 692 184 183 187
1378 1073 188 183 189
1379 1088 187 183 188
1380 1088 187 183 189
1381 974 53 57 56
1382 679 1146 1145 1151
1383 679 1146 1145 1150
1384 692 1146 1145 1149
1385 1073 1150 1145 1151
1386 1088 1149 1145 1150
1387 1088 1149 1145 1151
1388 679 756 755 761
1389 679 756 755 760
1390 692 756 755 759
1391 1073 760 755 761
1392 1088 759 755 760
1393 1088 759 755 761
1394 679 574 581 583
1395 679 574 581 584
1396 679 574 581 585
1397 1073 583 581 584
1398 1073 583 581 585
1399 1073 584 581 585
1400 974 1067 1071 1070
1401 675 612 613 620
1402 679 612 613 614
1403 679 614 613 620
1404 692 612 613 619
1405 692 619 613 620
1406 1088 614 613 619
1407 679 743 742 748
1408 679 743 742 747
1409 692 743 742 746
1410 1073 747 742 748
1411 1088 746 742 747
1412 1088 746 742 748
1413 679 1068 1075 1077
1414 679 1068 1075 1078
1415 679 1068 1075 1079
1416 1073 1077 1075 1078
1417 1073 1077 1075 1079
1418 1073 1078 1075 1079
1419 679 184 191 193
1420 679 184 191 194
1421 679 184 191 195
1422 1073 193 191 194
1423 1073 193 191 195
1424 1073 194 191 195
1425 675 1119 1120 1127
1426 679 1119 1120 1121
1427 679 1121 1120 1127
1428 692 1119 1120 1126
1429 692 1126 1120 1127
1430 1088 1121 1120 1126
1431 679 1042 1041 1047
1432 679 1042 1041 1046
1433 692 1042 1041 1045
1434 1073 1046 1041 1047
1435 1088 1045 1041 1046
1436 1088 1045 1041 1047
1437 974 1042 1048 1044
1438 675 1067 1068 1075
1439 679 1067 1068 1069
1440 679 1069 1068 1075
1441 692 1067 1068 1074
1442 692 1074 1068 1075
1443 1088 1069 1068 1074
1444 679 938 945 947
1445 679 938 945 948
1446 679 938 945 949
1447 1073 947 945 948
1448 1073 947 945 949
1449 1073 948 945 949
1450 675 1041 1042 1049
1451 679 1041 1042 1043
1452 679 1043 1042 1049
1453 692 1041 1042 1048
1454 692 1048 1042 1049
1455 1088 1043 1042 1048
1456 675 53 54 61
1457 679 53 54 55
1458 679 55 54 61
1459 692 53 54 60
1460 692 60 54 61
1461 1088 55 54 60
1462 974 755 759 758
1463 974 547 551 550
1464 679 54 53 59
1465 679 54 53 58
1466 692 54 53 57
1467 1073 58 53 59
1468 1088 57 53 58
1469 1088 57 53 59
1470 974 1120 1126 1122
1471 974 1262 1266 1265
1472 679 743 750 752
1473 679 743 750 753
1474 679 743 750 754
1475 1073 752 750 753
1476 1073 752 750 754
1477 1073 753 750 754
1478 679 548 547 553
1479 679 548 547 552
1480 692 548 547 551
1481 1073 552 547 553
1482 1088 551 547 552
1483 1088 551 547 553
1484 974 1119 1123 1122
1485 974 456 460 459
1486 974 613 619 615
1487 974 548 554 550
1488 974 1041 1045 1044
1489 974 54 60 56
1490 974 223 229 225
1491 675 586 587 594
1492 679 586 587 588
1493 679 588 587 594
1494 692 586 587 593
1495 692 593 587 594
1496 1088 588 587 593
1497 679 366 365 371
1498 679 366 365 370
1499 692 366 365 369
1500 1073 370 365 371
1501 1088 369 365 370
1502 1088 369 365 371
1503 675 378 379 386
1504 679 378 379 380
1505 679 380 379 386
1506 692 378 379 385
1507 692 385 379 386
1508 1088 380 379 385
1509 679 873 880 882
1510 679 873 880 883
1511 679 873 880 884
1512 1073 882 880 883
1513 1073 882 880 884
1514 1073 883 880 884
1515 679 444 443 449
1516 679 444 443 448
1517 692 444 443 447
1518 1073 448 443 449
1519 1088 447 443 448
1520 1088 447 443 449
1521 974 951 957 953
1522 974 924 928 927
1523 679 951 950 956
1524 679 951 950 955
1525 692 951 950 954
1526 1073 955 950 956
1527 1088 954 950 955
1528 1088 954 950 956
1529 974 950 954 953
1530 679 691 690 696
1531 679 691 690 695
1532 692 691 690 694
1533 1073 695 690 696
1534 1088 694 690 695
1535 1088 694 690 696
1536 974 690 694 693
1537 974 444 450 446
1538 679 223 222 228
1539 679 223 222 227
1540 692 223 222 226
1541 1073 227 222 228
1542 1088 226 222 227
1543 1088 226 222 228
1544 974 222 226 225
1545 675 365 366 373
1546 679 365 366 367
1547 679 367 366 373
1548 692 365 366 372
1549 692 372 366 373
1550 1088 367 366 372
1551 675 599 600 607
1552 679 599 600 601
1553 679 601 600 607
1554 692 599 600 606
1555 692 606 600 607
1556 1088 601 600 606
1557 675 222 223 230
1558 679 222 223 224
1559 679 224 223 230
1560 692 222 223 229
1561 692 229 223 230
1562 1088 224 223 229
1563 974 859 863 862
1564 679 392 399 401
1565 679 392 399 402
1566 679 392 399 403
1567 1073 401 399 402
1568 1073 401 399 403
1569 1073 402 399 403
1570 679 808 815 817
1571 679 808 815 818
1572 679 808 815 819
1573 1073 817 815 818
1574 1073 817 815 819
1575 1073 818 815 819
1576 974 392 398 394
1577 974 600 606 602
1578 679 223 230 232
1579 679 223 230 233
1580 679 223 230 234
1581 1073 232 230 233
1582 1073 232 230 234
1583 1073 233 230 234
1584 974 925 931 927
1585 675 248 249 256
1586 679 248 249 250
1587 679 250 249 256
1588 692 248 249 255
1589 692 255 249 256
1590 1088 250 249 255
1591 679 314 321 323
1592 679 314 321 324
1593 679 314 321 325
1594 1073 323 321 324
1595 1073 323 321 325
1596 1073 324 321 325
1597 675 300 301 308
1598 679 300 301 302
1599 679 302 301 308
1600 692 300 301 307
1601 692 307 301 308
1602 1088 302 301 307
1603 679 340 347 349
1604 679 340 347 350
1605 679 340 347 351
1606 1073 349 347 350
1607 1073 349 347 351
1608 1073 350 347 351
1609 679 600 599 605
1610 679 600 599 604
1611 692 600 599 603
1612 1073 604 599 605
1613 1088 603 599 604
1614 1088 603 599 605
1615 679 444 451 453
1616 679 444 451 454
1617 679 444 451 455
1618 1073 453 451 454
1619 1073 453 451 455
1620 1073 454 451 455
1621 679 301 308 310
1622 679 301 308 311
1623 679 301 308 312
1624 1073 310 308 311
1625 1073 310 308 312
1626 1073 311 308 312
1627 974 1146 1152 1148
1628 679 301 300 306
1629 679 301 300 305
1630 692 301 300 304
1631 1073 305 300 306
1632 1088 304 300 305
1633 1088 304 300 306
1634 974 872 876 875
1635 679 249 256 258
1636 679 249 256 259
1637 679 249 256 260
1638 1073 258 256 259
1639 1073 258 256 260
1640 1073 259 256 260
1641 675 391 392 399
1642 679 391 392 393
1643 679 393 392 399
1644 692 391 392 398
1645 692 398 392 399
1646 1088 393 392 398
1647 675 950 951 958
1648 679 950 951 952
1649 679 952 951 958
1650 692 950 951 957
1651 692 957 951 958
1652 1088 952 951 957
1653 974 691 697 693
1654 675 690 691 698
1655 679 690 691 692
1656 679 692 691 698
1657 692 690 691 697
1658 692 697 691 698
1659 1088 692 691 697
1660 679 873 872 878
1661 679 873 872 877
1662 692 873 872 876
1663 1073 877 872 878
1664 1088 876 872 877
1665 1088 876 872 878
1666 974 599 603 602
1667 679 587 586 592
1668 679 587 586 591
1669 692 587 586 590
1670 1073 591 586 592
1671 1088 590 586 591
1672 1088 590 586 592
1673 679 379 378 384
1674 679 379 378 383
1675 692 379 378 382
1676 1073 383 378 384
1677 1088 382 378 383
1678 1088 382 378 384
1679 679 249 248 254
1680 679 249 248 253
1681 692 249 248 252
1682 1073 253 248 254
1683 1088 252 248 253
1684 1088 252 248 254
1685 675 872 873 880
1686 679 872 873 874
1687 679 874 873 880
1688 692 872 873 879
1689 692 879 873 880
1690 1088 874 873 879
1691 679 860 859 865
1692 679 860 859 864
1693 692 860 859 863
1694 1073 864 859 865
1695 1088 863 859 864
1696 1088 863 859 865
1697 974 379 385 381
1698 974 249 255 251
1699 974 248 252 251
1700 679 392 391 397
1701 679 392 391 396
1702 692 392 391 395
1703 1073 396 391 397
1704 1088 395 391 396
1705 1088 395 391 397
1706 679 691 698 700
1707 679 691 698 701
1708 679 691 698 702
1709 1073 700 698 701
1710 1073 700 698 702
1711 1073 701 698 702
1712 974 873 879 875
1713 675 443 444 451
1714 679 443 444 445
1715 679 445 444 451
1716 692 443 444 450
1717 692 450 444 451
1718 1088 445 444 450
1719 974 300 304 303
1720 974 301 307 303
1721 679 600 607 609
1722 679 600 607 610
1723 679 600 607 611
1724 1073 609 607 610
1725 1073 609 607 611
1726 1073 610 607 611
1727 974 378 382 381
1728 974 443 447 446
1729 679 665 664 670
1730 679 665 664 669
1731 692 665 664 668
1732 1073 669 664 670
1733 1088 668 664 669
1734 1088 668 664 670
1735 679 587 594 596
1736 679 587 594 597
1737 679 587 594 598
1738 1073 596 594 597
1739 1073 596 594 598
1740 1073 597 594 598
1741 974 1054 1058 1057
1742 679 951 958 960
1743 679 951 958 961
1744 679 951 958 962
1745 1073 960 958 961
1746 1073 960 958 962
1747 1073 961 958 962
1748 679 1055 1054 1060
1749 679 1055 1054 1059
1750 692 1055 1054 1058
1751 1073 1059 1054 1060
1752 1088 1058 1054 1059
1753 1088 1058 1054 1060
1754 974 391 395 394
1755 675 339 340 347
1756 679 339 340 341
1757 679 341 340 347
1758 692 339 340 346
1759 692 346 340 347
1760 1088 341 340 346
1761 679 236 243 245
1762 679 236 243 246
1763 679 236 243 247
1764 1073 245 243 246
1765 1073 245 243 247
1766 1073 246 243 247
1767 974 573 577 576
1768 675 898 899 906
1769 679 898 899 900
1770 679 900 899 906
1771 692 898 899 905
1772 692 905 899 906
1773 1088 900 899 905
1774 679 990 989 995
1775 679 990 989 994
1776 692 990 989 993
1777 1073 994 989 995
1778 1088 993 989 994
1779 1088 993 989 995
1780 679 210 217 219
1781 679 210 217 220
1782 679 210 217 221
1783 1073 219 217 220
1784 1073 219 217 221
1785 1073 220 217 221
1786 679 717 716 722
1787 679 717 716 721
1788 692 717 716 720
1789 1073 721 716 722
1790 1088 720 716 721
1791 1088 720 716 722
1792 974 313 317 316
1793 679 1120 1119 1125
1794 679 1120 1119 1124
1795 692 1120 1119 1123
1796 1073 1124 1119 1125
1797 1088 1123 1119 1124
1798 1088 1123 1119 1125
1799 974 561 567 563
1800 679 1237 1244 1246
1801 679 1237 1244 1247
1802 679 1237 1244 1248
1803 1073 1246 1244 1247
1804 1073 1246 1244 1248
1805 1073 1247 1244 1248
1806 974 586 590 589
1807 679 522 521 527
1808 679 522 521 526
1809 692 522 521 525
1810 1073 526 521 527
1811 1088 525 521 526
1812 1088 525 521 527
1813 675 1236 1237 1244
1814 679 1236 1237 1238
1815 679 1238 1237 1244
1816 692 1236 1237 1243
1817 692 1243 1237 1244
1818 1088 1238 1237 1243
1819 974 1236 1240 1239
1820 675 1262 1263 1270
1821 679 1262 1263 1264
1822 679 1264 1263 1270
1823 692 1262 1263 1269
1824 692 1269 1263 1270
1825 1088 1264 1263 1269
1826 679 899 898 904
1827 679 899 898 903
1828 692 899 898 902
1829 1073 903 898 904
1830 1088 902 898 903
1831 1088 902 898 904
1832 974 2 8 4
1833 675 1 2 9
1834 679 1 2 3
1835 679 3 2 9
1836 692 1 2 8
1837 692 8 2 9
1838 1088 3 2 8
1839 679 1185 1192 1194
1840 679 1185 1192 1195
1841 679 1185 1192 1196
1842 1073 1194 1192 1195
1843 1073 1194 1192 1196
1844 1073 1195 1192 1196
1845 675 313 314 321
1846 679 313 314 315
1847 679 315 314 321
1848 692 313 314 320
1849 692 320 314 321
1850 1088 315 314 320
1851 675 1184 1185 1192
1852 679 1184 1185 1186
1853 679 1186 1185 1192
1854 692 1184 1185 1191
1855 692 1191 1185 1192
1856 1088 1186 1185 1191
1857 974 964 970 966
1858 675 521 522 529
1859 679 521 522 523
1860 679 523 522 529
1861 692 521 522 528
1862 692 528 522 529
1863 1088 523 522 528
1864 679 2 9 11
1865 679 2 9 12
1866 679 2 9 13
1867 1073 11 9 12
1868 1073 11 9 13
1869 1073 12 9 13
1870 974 989 993 992
1871 974 314 320 316
1872 974 899 905 901
1873 974 703 707 706
1874 679 1198 1197 1203
1875 679 1198 1197 1202
1876 692 1198 1197 1201
1877 1073 1202 1197 1203
1878 1088 1201 1197 1202
1879 1088 1201 1197 1203
1880 679 1120 1127 1129
1881 679 1120 1127 1130
1882 679 1120 1127 1131
1883 1073 1129 1127 1130
1884 1073 1129 1127 1131
1885 1073 1130 1127 1131
1886 679 613 612 618
1887 679 613 612 617
1888 692 613 612 616
1889 1073 617 612 618
1890 1088 616 612 617
1891 1088 616 612 618
1892 679 717 724 726
1893 679 717 724 727
1894 679 717 724 728
1895 1073 726 724 727
1896 1073 726 724 728
1897 1073 727 724 728
1898 679 314 313 319
1899 679 314 313 318
1900 692 314 313 317
1901 1073 318 313 319
1902 1088 317 313 318
1903 1088 317 313 319
1904 679 1263 1262 1268
1905 679 1263 1262 1267
1906 692 1263 1262 1266
1907 1073 1267 1262 1268
1908 1088 1266 1262 1267
1909 1088 1266 1262 1268
1910 679 899 906 908
1911 679 899 906 909
1912 679 899 906 910
1913 1073 908 906 909
1914 1073 908 906 910
1915 1073 909 906 910
1916 974 612 616 615
1917 974 522 528 524
1918 974 587 593 589
1919 974 963 967 966
1920 679 1263 1270 1272
1921 679 1263 1270 1273
1922 679 1263 1270 1274
1923 1073 1272 1270 1273
1924 1073 1272 1270 1274
1925 1073 1273 1270 1274
1926 974 717 723 719
1927 675 1197 1198 1205
1928 679 1197 1198 1199
1929 679 1199 1198 1205
1930 692 1197 1198 1204
1931 692 1204 1198 1205
1932 1088 1199 1198 1204
1933 974 236 242 238
1934 974 716 720 719
1935 679 1237 1236 1242
1936 679 1237 1236 1241
1937 692 1237 1236 1240
1938 1073 1241 1236 1242
1939 1088 1240 1236 1241
1940 1088 1240 1236 1242
1941 974 990 996 992
1942 679 522 529 531
1943 679 522 529 532
1944 679 522 529 533
1945 1073 531 529 532
1946 1073 531 529 533
1947 1073 532 529 533
1948 679 990 997 999
1949 679 990 997 1000
1950 679 990 997 1001
1951 1073 999 997 1000
1952 1073 999 997 1001
1953 1073 1000 997 1001
1954 974 1184 1188 1187
1955 675 716 717 724
1956 679 716 717 718
1957 679 718 717 724
1958 692 716 717 723
1959 692 723 717 724
1960 1088 718 717 723
1961 974 898 902 901
1962 974 521 525 524
1963 974 1237 1243 1239
1964 675 989 990 997
1965 679 989 990 991
1966 679 991 990 997
1967 692 989 990 996
1968 692 996 990 997
1969 1088 991 990 996
1970 675 235 236 243
1971 679 235 236 237
1972 679 237 236 243
1973 692 235 236 242
1974 692 242 236 243
1975 1088 237 236 242
1976 974 1185 1191 1187
1977 679 1198 1205 1207
1978 679 1198 1205 1208
1979 679 1198 1205 1209
1980 1073 1207 1205 1208
1981 1073 1207 1205 1209
1982 1073 1208 1205 1209
1983 679 1185 1184 1190
1984 679 1185 1184 1189
1985 692 1185 1184 1188
1986 1073 1189 1184 1190
1987 1088 1188 1184 1189
1988 1088 1188 1184 1190
1989 679 964 971 973
1990 679 964 971 974
1991 679 964 971 975
1992 1073 973 971 974
1993 1073 973 971 975
1994 1073 974 971 975
1995 679 704 703 709
1996 679 704 703 708
1997 692 704 703 707
1998 1073 708 703 709
1999 1088 707 703 708
2000 1088 707 703 709

Dihedrals

1 525 122 118 119 126
2 570 119 118 122 121
3 854 123 118 119 126
4 854 124 118 119 126
5 871 123 118 119 125
6 871 124 118 119 125
7 1127 122 118 119 125
8 775 537 538 534 540
9 775 537 538 534 539
10 1132 534 538 537 541
11 775 160 161 157 163
12 775 160 161 157 162
13 1132 157 161 160 164
14 525 96 92 93 100
15 570 93 92 96 95
16 854 97 92 93 100
17 854 98 92 93 100
18 871 97 92 93 99
19 871 98 92 93 99
20 1127 96 92 93 99
21 570 1106 1107 1113 1109
22 775 1108 1107 1113 1109
23 854 1106 1107 1114 1116
24 854 1106 1107 1114 1117
25 854 1106 1107 1114 1118
26 864 1108 1107 1106 1112
27 864 1108 1107 1106 1111
28 864 1108 1107 1114 1116
29 864 1108 1107 1114 1117
30 864 1108 1107 1114 1118
31 871 1108 1107 1106 1110
32 871 1113 1107 1114 1116
33 871 1113 1107 1114 1117
34 871 1113 1107 1114 1118
35 525 83 79 80 87
36 570 80 79 83 82
37 854 84 79 80 87
38 854 85 79 80 87
39 871 84 79 80 86
40 871 85 79 80 86
41 1127 83 79 80 86
42 525 1110 1106 1107 1114
43 570 1107 1106 1110 1109
44 854 1111 1106 1107 1114
45 854 1112 1106 1107 1114
46 871 1111 1106 1107 1113
47 871 1112 1106 1107 1113
48 1127 1110 1106 1107 1113
49 570 121 125 119 126
50 1132 119 125 121 122
51 525 642 638 639 646
52 570 639 638 642 641
53 854 643 638 639 646
54 854 644 638 639 646
55 871 643 638 639 645
56 871 644 638 639 645
57 1127 642 638 639 645
58 570 820 821 827 823
59 775 822 821 827 823
60 854 820 821 828 830
61 854 820 821 828 831
62 854 820 821 828 832
63 864 822 821 820 826
64 864 822 821 820 825
65 864 822 821 828 830
66 864 822 821 828 831
67 864 822 821 828 832
68 871 822 821 820 824
69 871 827 821 828 830
70 871 827 821 828 831
71 871 827 821 828 832
72 570 1109 1113 1107 1114
73 1132 1107 1113 1109 1110
74 570 472 476 470 477
75 1132 470 476 472 473
76 775 654 655 651 657
77 775 654 655 651 656
78 1132 651 655 654 658
79 570 498 502 496 503
80 1132 496 502 498 499
81 775 628 629 625 631
82 775 628 629 625 630
83 1132 625 629 628 632
84 525 499 495 496 503
85 570 496 495 499 498
86 854 500 495 496 503
87 854 501 495 496 503
88 871 500 495 496 502
89 871 501 495 496 502
90 1127 499 495 496 502
91 525 655 651 652 659
92 570 652 651 655 654
93 854 656 651 652 659
94 854 657 651 652 659
95 871 656 651 652 658
96 871 657 651 652 658
97 1127 655 651 652 658
98 775 641 642 638 644
99 775 641 642 638 643
100 1132 638 642 641 645
101 775 121 122 118 124
102 775 121 122 118 123
103 1132 118 122 121 125
104 570 628 632 626 633
105 1132 626 632 628 629
106 775 1109 1110 1106 1112
107 775 1109 1110 1106 1111
108 1132 1106 1110 1109 1113
109 570 482 483 489 485
110 775 484 483 489 485
111 854 482 483 490 492
112 854 482 483 490 493
113 854 482 483 490 494
114 864 484 483 482 488
115 864 484 483 482 487
116 864 484 483 490 492
117 864 484 483 490 493
118 864 484 483 490 494
119 871 484 483 482 486
120 871 489 483 490 492
121 871 489 483 490 493
122 871 489 483 490 494
123 525 486 482 483 490
124 570 483 482 486 485
125 854 487 482 483 490
126 854 488 482 483 490
127 871 487 482 483 489
128 871 488 482 483 489
129 1127 486 482 483 489
130 570 495 496 502 498
131 775 497 496 502 498
132 854 495 496 503 505
133 854 495 496 503 506
134 854 495 496 503 507
135 864 497 496 495 501
136 864 497 496 495 500
137 864 497 496 503 505
138 864 497 496 503 506
139 864 497 496 503 507
140 871 497 496 495 499
141 871 502 496 503 505
142 871 502 496 503 506
143 871 502 496 503 507
144 570 651 652 658 654
145 775 653 652 658 654
146 854 651 652 659 661
147 854 651 652 659 662
148 854 651 652 659 663
149 864 653 652 651 657
150 864 653 652 651 656
151 864 653 652 659 661
152 864 653 652 659 662
153 864 653 652 659 663
154 871 653 652 651 655
155 871 658 652 659 661
156 871 658 652 659 662
157 871 658 652 659 663
158 570 534 535 541 537
159 775 536 535 541 537
160 854 534 535 542 544
161 854 534 535 542 545
162 854 534 535 542 546
163 864 536 535 534 540
164 864 536 535 534 539
165 864 536 535 542 544
166 864 536 535 542 545
167 864 536 535 542 546
168 871 536 535 534 538
169 871 541 535 542 544
170 871 541 535 542 545
171 871 541 535 542 546
172 570 92 93 99 95
173 775 94 93 99 95
174 854 92 93 100 102
175 854 92 93 100 103
176 854 92 93 100 104
177 864 94 93 92 98
178 864 94 93 92 97
179 864 94 93 100 102
180 864 94 93 100 103
181 864 94 93 100 104
182 871 94 93 92 96
183 871 99 93 100 102
184 871 99 93 100 103
185 871 99 93 100 104
186 525 473 469 470 477
187 570 470 469 473 472
188 854 474 469 470 477
189 854 475 469 470 477
190 871 474 469 470 476
191 871 475 469 470 476
192 1127 473 469 470 476
193 525 161 157 158 165
194 570 158 157 161 160
195 854 162 157 158 165
196 854 163 157 158 165
197 871 162 157 158 164
198 871 163 157 158 164
199 1127 161 157 158 164
200 525 824 820 821 828
201 570 821 820 824 823
202 854 825 820 821 828
203 854 826 820 821 828
204 871 825 820 821 827
205 871 826 820 821 827
206 1127 824 820 821 827
207 570 537 541 535 542
208 1132 535 541 537 538
209 525 629 625 626 633
210 570 626 625 629 628
211 854 630 625 626 633
212 854 631 625 626 633
213 871 630 625 626 632
214 871 631 625 626 632
215 1127 629 625 626 632
216 570 79 80 86 82
217 775 81 80 86 82
218 854 79 80 87 89
219 854 79 80 87 90
220 854 79 80 87 91
221 864 81 80 79 85
222 864 81 80 79 84
223 864 81 80 87 89
224 864 81 80 87 90
225 864 81 80 87 91
226 871 81 80 79 83
227 871 86 80 87 89
228 871 86 80 87 90
229 871 86 80 87 91
230 570 485 489 483 490
231 1132 483 489 485 486
232 570 433 437 431 438
233 1132 431 437 433 434
234 775 433 434 430 436
235 775 433 434 430 435
236 1132 430 434 433 437
237 775 823 824 820 826
238 775 823 824 820 825
239 1132 820 824 823 827
240 570 469 470 476 472
241 775 471 470 476 472
242 854 469 470 477 479
243 854 469 470 477 480
244 854 469 470 477 481
245 864 471 470 469 475
246 864 471 470 469 474
247 864 471 470 477 479
248 864 471 470 477 480
249 864 471 470 477 481
250 871 471 470 469 473
251 871 476 470 477 479
252 871 476 470 477 480
253 871 476 470 477 481
254 570 625 626 632 628
255 775 627 626 632 628
256 854 625 626 633 635
257 854 625 626 633 636
258 854 625 626 633 637
259 864 627 626 625 631
260 864 627 626 625 630
261 864 627 626 633 635
262 864 627 626 633 636
263 864 627 626 633 637
264 871 627 626 625 629
265 871 632 626 633 635
266 871 632 626 633 636
267 871 632 626 633 637
268 570 823 827 821 828
269 1132 821 827 823 824
270 570 118 119 125 121
271 775 120 119 125 121
272 854 118 119 126 128
273 854 118 119 126 129
274 854 118 119 126 130
275 864 120 119 118 124
276 864 120 119 118 123
277 864 120 119 126 128
278 864 120 119 126 129
279 864 120 119 126 130
280 871 120 119 118 122
281 871 125 119 126 128
282 871 125 119 126 129
283 871 125 119 126 130
284 775 498 499 495 501
285 775 498 499 495 500
286 1132 495 499 498 502
287 525 434 430 431 438
288 570 431 430 434 433
289 854 435 430 431 438
290 854 436 430 431 438
291 871 435 430 431 437
292 871 436 430 431 437
293 1127 434 430 431 437
294 570 430 431 437 433
295 775 432 431 437 433
296 854 430 431 438 440
297 854 430 431 438 441
298 854 430 431 438 442
299 864 432 431 430 436
300 864 432 431 430 435
301 864 432 431 438 440
302 864 432 431 438 441
303 864 432 431 438 442
304 871 432 431 430 434
305 871 437 431 438 440
306 871 437 431 438 441
307 871 437 431 438 442
308 570 638 639 645 641
309 775 640 639 645 641
310 854 638 639 646 648
311 854 638 639 646 649
312 854 638 639 646 650
313 864 640 639 638 644
314 864 640 639 638 643
315 864 640 639 646 648
316 864 640 639 646 649
317 864 640 639 646 650
318 871 640 639 638 642
319 871 645 639 646 648
320 871 645 639 646 649
321 871 645 639 646 650
322 570 654 658 652 659
323 1132 652 658 654 655
324 775 420 421 417 423
325 775 420 421 417 422
326 1132 417 421 420 424
327 775 667 668 664 670
328 775 667 668 664 669
329 1132 664 668 667 671
330 570 755 756 762 758
331 775 757 756 762 758
332 854 755 756 763 765
333 854 755 756 763 766
334 854 755 756 763 767
335 864 757 756 755 761
336 864 757 756 755 760
337 864 757 756 763 765
338 864 757 756 763 766
339 864 757 756 763 767
340 871 757 756 755 759
341 871 762 756 763 765
342 871 762 756 763 766
343 871 762 756 763 767
344 775 1213 1214 1210 1216
345 775 1213 1214 1210 1215
346 1132 1210 1214 1213 1217
347 570 547 548 554 550
348 775 549 548 554 550
349 854 547 548 555 557
350 854 547 548 555 558
351 854 547 548 555 559
352 864 549 548 547 553
353 864 549 548 547 552
354 864 549 548 555 557
355 864 549 548 555 558
356 864 549 548 555 559
357 871 549 548 547 551
358 871 554 548 555 557
359 871 554 548 555 558
360 871 554 548 555 559
361 570 95 99 93 100
362 1132 93 99 95 96
363 525 1097 1093 1094 1101
364 570 1094 1093 1097 1096
365 854 1098 1093 1094 1101
366 854 1099 1093 1094 1101
367 871 1098 1093 1094 1100
368 871 1099 1093 1094 1100
369 1127 1097 1093 1094 1100
370 570 1213 1217 1211 1218
371 1132 1211 1217 1213 1214
372 775 30 31 27 33
373 775 30 31 27 32
374 1132 27 31 30 34
375 525 278 274 275 282
376 570 275 274 278 277
377 854 279 274 275 282
378 854 280 274 275 282
379 871 279 274 275 281
380 871 280 274 275 281
381 1127 278 274 275 281
382 525 174 170 171 178
383 570 171 170 174 173
384 854 175 170 171 178
385 854 176 170 171 178
386 871 175 170 171 177
387 871 176 170 171 177
388 1127 174 170 171 177
389 525 460 456 457 464
390 570 457 456 460 459
391 854 461 456 457 464
392 854 462 456 457 464
393 871 461 456 457 463
394 871 462 456 457 463
395 1127 460 456 457 463
396 570 277 281 275 282
397 1132 275 281 277 278
398 570 1174 1178 1172 1179
399 1132 1172 1178 1174 1175
400 570 329 333 327 334
401 1132 327 333 329 330
402 570 1096 1100 1094 1101
403 1132 1094 1100 1096 1097
404 775 511 512 508 514
405 775 511 512 508 513
406 1132 508 512 511 515
407 570 1210 1211 1217 1213
408 775 1212 1211 1217 1213
409 854 1210 1211 1218 1220
410 854 1210 1211 1218 1221
411 854 1210 1211 1218 1222
412 864 1212 1211 1210 1216
413 864 1212 1211 1210 1215
414 864 1212 1211 1218 1220
415 864 1212 1211 1218 1221
416 864 1212 1211 1218 1222
417 871 1212 1211 1210 1214
418 871 1217 1211 1218 1220
419 871 1217 1211 1218 1221
420 871 1217 1211 1218 1222
421 525 980 976 977 984
422 570 977 976 980 979
423 854 981 976 977 984
424 854 982 976 977 984
425 871 981 976 977 983
426 871 982 976 977 983
427 1127 980 976 977 983
428 570 173 177 171 178
429 1132 171 177 173 174
430 525 1214 1210 1211 1218
431 570 1211 1210 1214 1213
432 854 1215 1210 1211 1218
433 854 1216 1210 1211 1218
434 871 1215 1210 1211 1217
435 871 1216 1210 1211 1217
436 1127 1214 1210 1211 1217
437 570 1093 1094 1100 1096
438 775 1095 1094 1100 1096
439 854 1093 1094 1101 1103
440 854 1093 1094 1101 1104
441 854 1093 1094 1101 1105
442 864 1095 1094 1093 1099
443 864 1095 1094 1093 1098
444 864 1095 1094 1101 1103
445 864 1095 1094 1101 1104
446 864 1095 1094 1101 1105
447 871 1095 1094 1093 1097
448 871 1100 1094 1101 1103
449 871 1100 1094 1101 1104
450 871 1100 1094 1101 1105
451 525 1279 1275 1276 1283
452 570 1276 1275 1279 1278
453 854 1280 1275 1276 1283
454 854 1281 1275 1276 1283
455 871 1280 1275 1276 1282
456 871 1281 1275 1276 1282
457 1127 1279 1275 1276 1282
458 570 1265 1269 1263 1270
459 1132 1263 1269 1265 1266
460 570 27 28 34 30
461 775 29 28 34 30
462 854 27 28 35 37
463 854 27 28 35 38
464 854 27 28 35 39
465 864 29 28 27 33
466 864 29 28 27 32
467 864 29 28 35 37
468 864 29 28 35 38
469 864 29 28 35 39
470 871 29 28 27 31
471 871 34 28 35 37
472 871 34 28 35 38
473 871 34 28 35 39
474 570 1275 1276 1282 1278
475 775 1277 1276 1282 1278
476 854 1275 1276 1283 1285
477 854 1275 1276 1283 1286
478 854 1275 1276 1283 1287
479 864 1277 1276 1275 1281
480 864 1277 1276 1275 1280
481 864 1277 1276 1283 1285
482 864 1277 1276 1283 1286
483 864 1277 1276 1283 1287
484 871 1277 1276 1275 1279
485 871 1282 1276 1283 1285
486 871 1282 1276 1283 1286
487 871 1282 1276 1283 1287
488 570 459 463 457 464
489 1132 457 463 459 460
490 570 511 515 509 516
491 1132 509 515 511 512
492 570 160 164 158 165
493 1132 158 164 160 161
494 570 274 275 281 277
495 775 276 275 281 277
496 854 274 275 282 284
497 854 274 275 282 285
498 854 274 275 282 286
499 864 276 275 274 280
500 864 276 275 274 279
501 864 276 275 282 284
502 864 276 275 282 285
503 864 276 275 282 286
504 871 276 275 274 278
505 871 281 275 282 284
506 871 281 275 282 285
507 871 281 275 282 286
508 570 1171 1172 1178 1174
509 775 1173 1172 1178 1174
510 854 1171 1172 1179 1181
511 854 1171 1172 1179 1182
512 854 1171 1172 1179 1183
513 864 1173 1172 1171 1177
514 864 1173 1172 1171 1176
515 864 1173 1172 1179 1181
516 864 1173 1172 1179 1182
517 864 1173 1172 1179 1183
518 871 1173 1172 1171 1175
519 871 1178 1172 1179 1181
520 871 1178 1172 1179 1182
521 871 1178 1172 1179 1183
522 570 1278 1282 1276 1283
523 1132 1276 1282 1278 1279
524 525 31 27 28 35
525 570 28 27 31 30
526 854 32 27 28 35
527 854 33 27 28 35
528 871 32 27 28 34
529 871 33 27 28 34
530 1127 31 27 28 34
531 570 976 977 983 979
532 775 978 977 983 979
533 854 976 977 984 986
534 854 976 977 984 987
535 854 976 977 984 988
536 864 978 977 976 982
537 864 978 977 976 981
538 864 978 977 984 986
539 864 978 977 984 987
540 864 978 977 984 988
541 871 978 977 976 980
542 871 983 977 984 986
543 871 983 977 984 987
544 871 983 977 984 988
545 570 17 21 15 22
546 1132 15 21 17 18
547 775 277 278 274 280
548 775 277 278 274 279
549 1132 274 278 277 281
550 570 758 762 756 763
551 1132 756 762 758 759
552 775 173 174 170 176
553 775 173 174 170 175
554 1132 170 174 173 177
555 570 30 34 28 35
556 1132 28 34 30 31
557 570 157 158 164 160
558 775 159 158 164 160
559 854 157 158 165 167
560 854 157 158 165 168
561 854 157 158 165 169
562 864 159 158 157 163
563 864 159 158 157 162
564 864 159 158 165 167
565 864 159 158 165 168
566 864 159 158 165 169
567 871 159 158 157 161
568 871 164 158 165 167
569 871 164 158 165 168
570 871 164 158 165 169
571 570 456 457 463 459
572 775 458 457 463 459
573 854 456 457 464 466
574 854 456 457 464 467
575 854 456 457 464 468
576 864 458 457 456 462
577 864 458 457 456 461
578 864 458 457 464 466
579 864 458 457 464 467
580 864 458 457 464 468
581 871 458 457 456 460
582 871 463 457 464 466
583 871 463 457 464 467
584 871 463 457 464 468
585 775 1096 1097 1093 1099
586 775 1096 1097 1093 1098
587 1132 1093 1097 1096 1100
588 570 508 509 515 511
589 775 510 509 515 511
590 854 508 509 516 518
591 854 508 509 516 519
592 854 508 509 516 520
593 864 510 509 508 514
594 864 510 509 508 513
595 864 510 509 516 518
596 864 510 509 516 519
597 864 510 509 516 520
598 871 510 509 508 512
599 871 515 509 516 518
600 871 515 509 516 519
601 871 515 509 516 520
602 525 512 508 509 516
603 570 509 508 512 511
604 854 513 508 509 516
605 854 514 508 509 516
606 871 513 508 509 515
607 871 514 508 509 515
608 1127 512 508 509 515
609 775 1278 1279 1275 1281
610 775 1278 1279 1275 1280
611 1132 1275 1279 1278 1282
612 570 170 171 177 173
613 775 172 171 177 173
614 854 170 171 178 180
615 854 170 171 178 181
616 854 170 171 178 182
617 864 172 171 170 176
618 864 172 171 170 175
619 864 172 171 178 180
620 864 172 171 178 181
621 864 172 171 178 182
622 871 172 171 170 174
623 871 177 171 178 180
624 871 177 171 178 181
625 871 177 171 178 182
626 775 472 473 469 475
627 775 472 473 469 474
628 1132 469 473 472 476
629 525 200 196 197 204
630 570 197 196 200 199
631 854 201 196 197 204
632 854 202 196 197 204
633 871 201 196 197 203
634 871 202 196 197 203
635 1127 200 196 197 203
636 525 135 131 132 139
637 570 132 131 135 134
638 854 136 131 132 139
639 854 137 131 132 139
640 871 136 131 132 138
641 871 137 131 132 138
642 1127 135 131 132 138
643 525 1162 1158 1159 1166
644 570 1159 1158 1162 1161
645 854 1163 1158 1159 1166
646 854 1164 1158 1159 1166
647 871 1163 1158 1159 1165
648 871 1164 1158 1159 1165
649 1127 1162 1158 1159 1165
650 570 797 801 795 802
651 1132 795 801 797 798
652 775 797 798 794 800
653 775 797 798 794 799
654 1132 794 798 797 801
655 570 196 197 203 199
656 775 198 197 203 199
657 854 196 197 204 206
658 854 196 197 204 207
659 854 196 197 204 208
660 864 198 197 196 202
661 864 198 197 196 201
662 864 198 197 204 206
663 864 198 197 204 207
664 864 198 197 204 208
665 871 198 197 196 200
666 871 203 197 204 206
667 871 203 197 204 207
668 871 203 197 204 208
669 775 1252 1253 1249 1255
670 775 1252 1253 1249 1254
671 1132 1249 1253 1252 1256
672 570 261 262 268 264
673 775 263 262 268 264
674 854 261 262 269 271
675 854 261 262 269 272
676 854 261 262 269 273
677 864 263 262 261 267
678 864 263 262 261 266
679 864 263 262 269 271
680 864 263 262 269 272
681 864 263 262 269 273
682 871 263 262 261 265
683 871 268 262 269 271
684 871 268 262 269 272
685 871 268 262 269 273
686 775 134 135 131 137
687 775 134 135 131 136
688 1132 131 135 134 138
689 525 889 885 886 893
690 570 886 885 889 888
691 854 890 885 886 893
692 854 891 885 886 893
693 871 890 885 886 892
694 871 891 885 886 892
695 1127 889 885 886 892
696 570 1028 1029 1035 1031
697 775 1030 1029 1035 1031
698 854 1028 1029 1036 1038
699 854 1028 1029 1036 1039
700 854 1028 1029 1036 1040
701 864 1030 1029 1028 1034
702 864 1030 1029 1028 1033
703 864 1030 1029 1036 1038
704 864 1030 1029 1036 1039
705 864 1030 1029 1036 1040
706 871 1030 1029 1028 1032
707 871 1035 1029 1036 1038
708 871 1035 1029 1036 1039
709 871 1035 1029 1036 1040
710 775 82 83 79 85
711 775 82 83 79 84
712 1132 79 83 82 86
713 775 355 356 352 358
714 775 355 356 352 357
715 1132 352 356 355 359
716 570 641 645 639 646
717 1132 639 645 641 642
718 570 667 671 665 672
719 1132 665 671 667 668
720 570 732 736 730 737
721 1132 730 736 732 733
722 570 888 892 886 893
723 1132 886 892 888 889
724 775 95 96 92 98
725 775 95 96 92 97
726 1132 92 96 95 99
727 570 664 665 671 667
728 775 666 665 671 667
729 854 664 665 672 674
730 854 664 665 672 675
731 854 664 665 672 676
732 864 666 665 664 670
733 864 666 665 664 669
734 864 666 665 672 674
735 864 666 665 672 675
736 864 666 665 672 676
737 871 666 665 664 668
738 871 671 665 672 674
739 871 671 665 672 675
740 871 671 665 672 676
741 570 420 424 418 425
742 1132 418 424 420 421
743 570 1252 1256 1250 1257
744 1132 1250 1256 1252 1253
745 570 355 359 353 360
746 1132 353 359 355 356
747 570 147 151 145 152
748 1132 145 151 147 148
749 570 1161 1165 1159 1166
750 1132 1159 1165 1161 1162
751 525 265 261 262 269
752 570 262 261 265 264
753 854 266 261 262 269
754 854 267 261 262 269
755 871 266 261 262 268
756 871 267 261 262 268
757 1127 265 261 262 268
758 570 1158 1159 1165 1161
759 775 1160 1159 1165 1161
760 854 1158 1159 1166 1168
761 854 1158 1159 1166 1169
762 854 1158 1159 1166 1170
763 864 1160 1159 1158 1164
764 864 1160 1159 1158 1163
765 864 1160 1159 1166 1168
766 864 1160 1159 1166 1169
767 864 1160 1159 1166 1170
768 871 1160 1159 1158 1162
769 871 1165 1159 1166 1168
770 871 1165 1159 1166 1169
771 871 1165 1159 1166 1170
772 570 134 138 132 139
773 1132 132 138 134 135
774 525 798 794 795 802
775 570 795 794 798 797
776 854 799 794 795 802
777 854 800 794 795 802
778 871 799 794 795 801
779 871 800 794 795 801
780 1127 798 794 795 801
781 570 836 840 834 841
782 1132 834 840 836 837
783 775 368 369 365 371
784 775 368 369 365 370
785 1132 365 369 368 372
786 570 368 372 366 373
787 1132 366 372 368 369
788 570 924 925 931 927
789 775 926 925 931 927
790 854 924 925 932 934
791 854 924 925 932 935
792 854 924 925 932 936
793 864 926 925 924 930
794 864 926 925 924 929
795 864 926 925 932 934
796 864 926 925 932 935
797 864 926 925 932 936
798 871 926 925 924 928
799 871 931 925 932 934
800 871 931 925 932 935
801 871 931 925 932 936
802 570 352 353 359 355
803 775 354 353 359 355
804 854 352 353 360 362
805 854 352 353 360 363
806 854 352 353 360 364
807 864 354 353 352 358
808 864 354 353 352 357
809 864 354 353 360 362
810 864 354 353 360 363
811 864 354 353 360 364
812 871 354 353 352 356
813 871 359 353 360 362
814 871 359 353 360 363
815 871 359 353 360 364
816 570 862 866 860 867
817 1132 860 866 862 863
818 570 833 834 840 836
819 775 835 834 840 836
820 854 833 834 841 843
821 854 833 834 841 844
822 854 833 834 841 845
823 864 835 834 833 839
824 864 835 834 833 838
825 864 835 834 841 843
826 864 835 834 841 844
827 864 835 834 841 845
828 871 835 834 833 837
829 871 840 834 841 843
830 871 840 834 841 844
831 871 840 834 841 845
832 525 837 833 834 841
833 570 834 833 837 836
834 854 838 833 834 841
835 854 839 833 834 841
836 871 838 833 834 840
837 871 839 833 834 840
838 1127 837 833 834 840
839 525 1032 1028 1029 1036
840 570 1029 1028 1032 1031
841 854 1033 1028 1029 1036
842 854 1034 1028 1029 1036
843 871 1033 1028 1029 1035
844 871 1034 1028 1029 1035
845 1127 1032 1028 1029 1035
846 775 836 837 833 839
847 775 836 837 833 838
848 1132 833 837 836 840
849 775 888 889 885 891
850 775 888 889 885 890
851 1132 885 889 888 892
852 775 264 265 261 267
853 775 264 265 261 266
854 1132 261 265 264 268
855 570 199 203 197 204
856 1132 197 203 199 200
857 570 264 268 262 269
858 1132 262 268 264 265
859 775 732 733 729 735
860 775 732 733 729 734
861 1132 729 733 732 736
862 570 131 132 138 134
863 775 133 132 138 134
864 854 131 132 139 141
865 854 131 132 139 142
866 854 131 132 139 143
867 864 133 132 131 137
868 864 133 132 131 136
869 864 133 132 139 141
870 864 133 132 139 142
871 864 133 132 139 143
872 871 133 132 131 135
873 871 138 132 139 141
874 871 138 132 139 142
875 871 138 132 139 143
876 570 1249 1250 1256 1252
877 775 1251 1250 1256 1252
878 854 1249 1250 1257 1259
879 854 1249 1250 1257 1260
880 854 1249 1250 1257 1261
881 864 1251 1250 1249 1255
882 864 1251 1250 1249 1254
883 864 1251 1250 1257 1259
884 864 1251 1250 1257 1260
885 864 1251 1250 1257 1261
886 871 1251 1250 1249 1253
887 871 1256 1250 1257 1259
888 871 1256 1250 1257 1260
889 871 1256 1250 1257 1261
890 570 144 145 151 147
891 775 146 145 151 147
892 854 144 145 152 154
893 854 144 145 152 155
894 854 144 145 152 156
895 864 146 145 144 150
896 864 146 145 144 149
897 864 146 145 152 154
898 864 146 145 152 155
899 864 146 145 152 156
900 871 146 145 144 148
901 871 151 145 152 154
902 871 151 145 152 155
903 871 151 145 152 156
904 570 82 86 80 87
905 1132 80 86 82 83
906 525 1253 1249 1250 1257
907 570 1250 1249 1253 1252
908 854 1254 1249 1250 1257
909 854 1255 1249 1250 1257
910 871 1254 1249 1250 1256
911 871 1255 1249 1250 1256
912 1127 1253 1249 1250 1256
913 775 1161 1162 1158 1164
914 775 1161 1162 1158 1163
915 1132 1158 1162 1161 1165
916 570 794 795 801 797
917 775 796 795 801 797
918 854 794 795 802 804
919 854 794 795 802 805
920 854 794 795 802 806
921 864 796 795 794 800
922 864 796 795 794 799
923 864 796 795 802 804
924 864 796 795 802 805
925 864 796 795 802 806
926 871 796 795 794 798
927 871 801 795 802 804
928 871 801 795 802 805
929 871 801 795 802 806
930 525 928 924 925 932
931 570 925 924 928 927
932 854 929 924 925 932
933 854 930 924 925 932
934 871 929 924 925 931
935 871 930 924 925 931
936 1127 928 924 925 931
937 775 199 200 196 202
938 775 199 200 196 201
939 1132 196 200 199 203
940 570 417 418 424 420
941 775 419 418 424 420
942 854 417 418 425 427
943 854 417 418 425 428
944 854 417 418 425 429
945 864 419 418 417 423
946 864 419 418 417 422
947 864 419 418 425 427
948 864 419 418 425 428
949 864 419 418 425 429
950 871 419 418 417 421
951 871 424 418 425 427
952 871 424 418 425 428
953 871 424 418 425 429
954 525 421 417 418 425
955 570 418 417 421 420
956 854 422 417 418 425
957 854 423 417 418 425
958 871 422 417 418 424
959 871 423 417 418 424
960 1127 421 417 418 424
961 570 859 860 866 862
962 775 861 860 866 862
963 854 859 860 867 869
964 854 859 860 867 870
965 854 859 860 867 871
966 864 861 860 859 865
967 864 861 860 859 864
968 864 861 860 867 869
969 864 861 860 867 870
970 864 861 860 867 871
971 871 861 860 859 863
972 871 866 860 867 869
973 871 866 860 867 870
974 871 866 860 867 871
975 570 885 886 892 888
976 775 887 886 892 888
977 854 885 886 893 895
978 854 885 886 893 896
979 854 885 886 893 897
980 864 887 886 885 891
981 864 887 886 885 890
982 864 887 886 893 895
983 864 887 886 893 896
984 864 887 886 893 897
985 871 887 886 885 889
986 871 892 886 893 895
987 871 892 886 893 896
988 871 892 886 893 897
989 525 356 352 353 360
990 570 353 352 356 355
991 854 357 352 353 360
992 854 358 352 353 360
993 871 357 352 353 359
994 871 358 352 353 359
995 1127 356 352 353 359
996 525 733 729 730 737
997 570 730 729 733 732
998 854 734 729 730 737
999 854 735 729 730 737
1000 871 734 729 730 736
1001 871 735 729 730 736
1002 1127 733 729 730 736
1003 570 209 210 216 212
1004 775 211 210 216 212
1005 854 209 210 217 219
1006 854 209 210 217 220
1007 854 209 210 217 221
1008 864 211 210 209 215
1009 864 211 210 209 214
1010 864 211 210 217 219
1011 864 211 210 217 220
1012 864 211 210 217 221
1013 871 211 210 209 213
1014 871 216 210 217 219
1015 871 216 210 217 220
1016 871 216 210 217 221
1017 570 677 678 684 680
1018 775 679 678 684 680
1019 854 677 678 685 687
1020 854 677 678 685 688
1021 854 677 678 685 689
1022 864 679 678 677 683
1023 864 679 678 677 682
1024 864 679 678 685 687
1025 864 679 678 685 688
1026 864 679 678 685 689
1027 871 679 678 677 681
1028 871 684 678 685 687
1029 871 684 678 685 688
1030 871 684 678 685 689
1031 570 1291 1295 1289 1296
1032 1132 1289 1295 1291 1292
1033 570 1200 1204 1198 1205
1034 1132 1198 1204 1200 1201
1035 525 291 287 288 295
1036 570 288 287 291 290
1037 854 292 287 288 295
1038 854 293 287 288 295
1039 871 292 287 288 294
1040 871 293 287 288 294
1041 1127 291 287 288 294
1042 525 772 768 769 776
1043 570 769 768 772 771
1044 854 773 768 769 776
1045 854 774 768 769 776
1046 871 773 768 769 775
1047 871 774 768 769 775
1048 1127 772 768 769 775
1049 525 330 326 327 334
1050 570 327 326 330 329
1051 854 331 326 327 334
1052 854 332 326 327 334
1053 871 331 326 327 333
1054 871 332 326 327 333
1055 1127 330 326 327 333
1056 570 212 216 210 217
1057 1132 210 216 212 213
1058 570 326 327 333 329
1059 775 328 327 333 329
1060 854 326 327 334 336
1061 854 326 327 334 337
1062 854 326 327 334 338
1063 864 328 327 326 332
1064 864 328 327 326 331
1065 864 328 327 334 336
1066 864 328 327 334 337
1067 864 328 327 334 338
1068 871 328 327 326 330
1069 871 333 327 334 336
1070 871 333 327 334 337
1071 871 333 327 334 338
1072 775 914 915 911 917
1073 775 914 915 911 916
1074 1132 911 915 914 918
1075 525 681 677 678 685
1076 570 678 677 681 680
1077 854 682 677 678 685
1078 854 683 677 678 685
1079 871 682 677 678 684
1080 871 683 677 678 684
1081 1127 681 677 678 684
1082 570 290 294 288 295
1083 1132 288 294 290 291
1084 570 1132 1133 1139 1135
1085 775 1134 1133 1139 1135
1086 854 1132 1133 1140 1142
1087 854 1132 1133 1140 1143
1088 854 1132 1133 1140 1144
1089 864 1134 1133 1132 1138
1090 864 1134 1133 1132 1137
1091 864 1134 1133 1140 1142
1092 864 1134 1133 1140 1143
1093 864 1134 1133 1140 1144
1094 871 1134 1133 1132 1136
1095 871 1139 1133 1140 1142
1096 871 1139 1133 1140 1143
1097 871 1139 1133 1140 1144
1098 570 1031 1035 1029 1036
1099 1132 1029 1035 1031 1032
1100 775 212 213 209 215
1101 775 212 213 209 214
1102 1132 209 213 212 216
1103 570 706 710 704 711
1104 1132 704 710 706 707
1105 775 1174 1175 1171 1177
1106 775 1174 1175 1171 1176
1107 1132 1171 1175 1174 1178
1108 775 4 5 1 7
1109 775 4 5 1 6
1110 1132 1 5 4 8
1111 525 915 911 912 919
1112 570 912 911 915 914
1113 854 916 911 912 919
1114 854 917 911 912 919
1115 871 916 911 912 918
1116 871 917 911 912 918
1117 1127 915 911 912 918
1118 570 680 684 678 685
1119 1132 678 684 680 681
1120 570 14 15 21 17
1121 775 16 15 21 17
1122 854 14 15 22 24
1123 854 14 15 22 25
1124 854 14 15 22 26
1125 864 16 15 14 20
1126 864 16 15 14 19
1127 864 16 15 22 24
1128 864 16 15 22 25
1129 864 16 15 22 26
1130 871 16 15 14 18
1131 871 21 15 22 24
1132 871 21 15 22 25
1133 871 21 15 22 26
1134 775 290 291 287 293
1135 775 290 291 287 292
1136 1132 287 291 290 294
1137 775 1291 1292 1288 1294
1138 775 1291 1292 1288 1293
1139 1132 1288 1292 1291 1295
1140 525 213 209 210 217
1141 570 210 209 213 212
1142 854 214 209 210 217
1143 854 215 209 210 217
1144 871 214 209 210 216
1145 871 215 209 210 216
1146 1127 213 209 210 216
1147 570 911 912 918 914
1148 775 913 912 918 914
1149 854 911 912 919 921
1150 854 911 912 919 922
1151 854 911 912 919 923
1152 864 913 912 911 917
1153 864 913 912 911 916
1154 864 913 912 919 921
1155 864 913 912 919 922
1156 864 913 912 919 923
1157 871 913 912 911 915
1158 871 918 912 919 921
1159 871 918 912 919 922
1160 871 918 912 919 923
1161 525 564 560 561 568
1162 570 561 560 564 563
1163 854 565 560 561 568
1164 854 566 560 561 568
1165 871 565 560 561 567
1166 871 566 560 561 567
1167 1127 564 560 561 567
1168 525 1175 1171 1172 1179
1169 570 1172 1171 1175 1174
1170 854 1176 1171 1172 1179
1171 854 1177 1171 1172 1179
1172 871 1176 1171 1172 1178
1173 871 1177 1171 1172 1178
1174 1127 1175 1171 1172 1178
1175 525 1292 1288 1289 1296
1176 570 1289 1288 1292 1291
1177 854 1293 1288 1289 1296
1178 854 1294 1288 1289 1296
1179 871 1293 1288 1289 1295
1180 871 1294 1288 1289 1295
1181 1127 1292 1288 1289 1295
1182 570 560 561 567 563
1183 775 562 561 567 563
1184 854 560 561 568 570
1185 854 560 561 568 571
1186 854 560 561 568 572
1187 864 562 561 560 566
1188 864 562 561 560 565
1189 864 562 561 568 570
1190 864 562 561 568 571
1191 864 562 561 568 572
1192 871 562 561 560 564
1193 871 567 561 568 570
1194 871 567 561 568 571
1195 871 567 561 568 572
1196 775 1135 1136 1132 1138
1197 775 1135 1136 1132 1137
1198 1132 1132 1136 1135 1139
1199 570 914 918 912 919
1200 1132 912 918 914 915
1201 525 1136 1132 1133 1140
1202 570 1133 1132 1136 1135
1203 854 1137 1132 1133 1140
1204 854 1138 1132 1133 1140
1205 871 1137 1132 1133 1139
1206 871 1138 1132 1133 1139
1207 1127 1136 1132 1133 1139
1208 570 771 775 769 776
1209 1132 769 775 771 772
1210 525 18 14 15 22
1211 570 15 14 18 17
1212 854 19 14 15 22
1213 854 20 14 15 22
1214 871 19 14 15 21
1215 871 20 14 15 21
1216 1127 18 14 15 21
1217 570 1135 1139 1133 1140
1218 1132 1133 1139 1135 1136
1219 570 768 769 775 771
1220 775 770 769 775 771
1221 854 768 769 776 778
1222 854 768 769 776 779
1223 854 768 769 776 780
1224 864 770 769 768 774
1225 864 770 769 768 773
1226 864 770 769 776 778
1227 864 770 769 776 779
1228 864 770 769 776 780
1229 871 770 769 768 772
1230 871 775 769 776 778
1231 871 775 769 776 779
1232 871 775 769 776 780
1233 775 771 772 768 774
1234 775 771 772 768 773
1235 1132 768 772 771 775
1236 775 680 681 677 683
1237 775 680 681 677 682
1238 1132 677 681 680 684
1239 525 148 144 145 152
1240 570 145 144 148 147
1241 854 149 144 145 152
1242 854 150 144 145 152
1243 871 149 144 145 151
1244 871 150 144 145 151
1245 1127 148 144 145 151
1246 570 287 288 294 290
1247 775 289 288 294 290
1248 854 287 288 295 297
1249 854 287 288 295 298
1250 854 287 288 295 299
1251 864 289 288 287 293
1252 864 289 288 287 292
1253 864 289 288 295 297
1254 864 289 288 295 298
1255 864 289 288 295 299
1256 871 289 288 287 291
1257 871 294 288 295 297
1258 871 294 288 295 298
1259 871 294 288 295 299
1260 570 1288 1289 1295 1291
1261 775 1290 1289 1295 1291
1262 854 1288 1289 1296 1298
1263 854 1288 1289 1296 1299
1264 854 1288 1289 1296 1300
1265 864 1290 1289 1288 1294
1266 864 1290 1289 1288 1293
1267 864 1290 1289 1296 1298
1268 864 1290 1289 1296 1299
1269 864 1290 1289 1296 1300
1270 871 1290 1289 1288 1292
1271 871 1295 1289 1296 1298
1272 871 1295 1289 1296 1299
1273 871 1295 1289 1296 1300
1274 525 5 1 2 9
1275 570 2 1 5 4
1276 854 6 1 2 9
1277 854 7 1 2 9
1278 871 6 1 2 8
1279 871 7 1 2 8
1280 1127 5 1 2 8
1281 775 329 330 326 332
1282 775 329 330 326 331
1283 1132 326 330 329 333
1284 775 147 148 144 150
1285 775 147 148 144 149
1286 1132 144 148 147 151
1287 525 239 235 236 243
1288 570 236 235 239 238
1289 854 240 235 236 243
1290 854 241 235 236 243
1291 871 240 235 236 242
1292 871 241 235 236 242
1293 1127 239 235 236 242
1294 775 1200 1201 1197 1203
1295 775 1200 1201 1197 1202
1296 1132 1197 1201 1200 1204
1297 570 703 704 710 706
1298 775 705 704 710 706
1299 854 703 704 711 713
1300 854 703 704 711 714
1301 854 703 704 711 715
1302 864 705 704 703 709
1303 864 705 704 703 708
1304 864 705 704 711 713
1305 864 705 704 711 714
1306 864 705 704 711 715
1307 871 705 704 703 707
1308 871 710 704 711 713
1309 871 710 704 711 714
1310 871 710 704 711 715
1311 775 238 239 235 241
1312 775 238 239 235 240
1313 1132 235 239 238 242
1314 775 17 18 14 20
1315 775 17 18 14 19
1316 1132 14 18 17 21
1317 775 1031 1032 1028 1034
1318 775 1031 1032 1028 1033
1319 1132 1028 1032 1031 1035
1320 570 729 730 736 732
1321 775 731 730 736 732
1322 854 729 730 737 739
1323 854 729 730 737 740
1324 854 729 730 737 741
1325 864 731 730 729 735
1326 864 731 730 729 734
1327 864 731 730 737 739
1328 864 731 730 737 740
1329 864 731 730 737 741
1330 871 731 730 729 733
1331 871 736 730 737 739
1332 871 736 730 737 740
1333 871 736 730 737 741
1334 570 807 808 814 810
1335 775 809 808 814 810
1336 854 807 808 815 817
1337 854 807 808 815 818
1338 854 807 808 815 819
1339 864 809 808 807 813
1340 864 809 808 807 812
1341 864 809 808 815 817
1342 864 809 808 815 818
1343 864 809 808 815 819
1344 871 809 808 807 811
1345 871 814 808 815 817
1346 871 814 808 815 818
1347 871 814 808 815 819
1348 570 1015 1016 1022 1018
1349 775 1017 1016 1022 1018
1350 854 1015 1016 1023 1025
1351 854 1015 1016 1023 1026
1352 854 1015 1016 1023 1027
1353 864 1017 1016 1015 1021
1354 864 1017 1016 1015 1020
1355 864 1017 1016 1023 1025
1356 864 1017 1016 1023 1026
1357 864 1017 1016 1023 1027
1358 871 1017 1016 1015 1019
1359 871 1022 1016 1023 1025
1360 871 1022 1016 1023 1026
1361 871 1022 1016 1023 1027
1362 570 1018 1022 1016 1023
1363 1132 1016 1022 1018 1019
1364 570 849 853 847 854
1365 1132 847 853 849 850
1366 775 407 408 404 410
1367 775 407 408 404 409
1368 1132 404 408 407 411
1369 525 1019 1015 1016 1023
1370 570 1016 1015 1019 1018
1371 854 1020 1015 1016 1023
1372 854 1021 1015 1016 1023
1373 871 1020 1015 1016 1022
1374 871 1021 1015 1016 1022
1375 1127 1019 1015 1016 1022
1376 570 407 411 405 412
1377 1132 405 411 407 408
1378 775 810 811 807 813
1379 775 810 811 807 812
1380 1132 807 811 810 814
1381 570 404 405 411 407
1382 775 406 405 411 407
1383 854 404 405 412 414
1384 854 404 405 412 415
1385 854 404 405 412 416
1386 864 406 405 404 410
1387 864 406 405 404 409
1388 864 406 405 412 414
1389 864 406 405 412 415
1390 864 406 405 412 416
1391 871 406 405 404 408
1392 871 411 405 412 414
1393 871 411 405 412 415
1394 871 411 405 412 416
1395 525 70 66 67 74
1396 570 67 66 70 69
1397 854 71 66 67 74
1398 854 72 66 67 74
1399 871 71 66 67 73
1400 871 72 66 67 73
1401 1127 70 66 67 73
1402 570 1054 1055 1061 1057
1403 775 1056 1055 1061 1057
1404 854 1054 1055 1062 1064
1405 854 1054 1055 1062 1065
1406 854 1054 1055 1062 1066
1407 864 1056 1055 1054 1060
1408 864 1056 1055 1054 1059
1409 864 1056 1055 1062 1064
1410 864 1056 1055 1062 1065
1411 864 1056 1055 1062 1066
1412 871 1056 1055 1054 1058
1413 871 1061 1055 1062 1064
1414 871 1061 1055 1062 1065
1415 871 1061 1055 1062 1066
1416 570 1083 1087 1081 1088
1417 1132 1081 1087 1083 1084
1418 570 66 67 73 69
1419 775 68 67 73 69
1420 854 66 67 74 76
1421 854 66 67 74 77
1422 854 66 67 74 78
1423 864 68 67 66 72
1424 864 68 67 66 71
1425 864 68 67 74 76
1426 864 68 67 74 77
1427 864 68 67 74 78
1428 871 68 67 66 70
1429 871 73 67 74 76
1430 871 73 67 74 77
1431 871 73 67 74 78
1432 775 1005 1006 1002 1008
1433 775 1005 1006 1002 1007
1434 1132 1002 1006 1005 1009
1435 775 849 850 846 852
1436 775 849 850 846 851
1437 1132 846 850 849 853
1438 525 1006 1002 1003 1010
1439 570 1003 1002 1006 1005
1440 854 1007 1002 1003 1010
1441 854 1008 1002 1003 1010
1442 871 1007 1002 1003 1009
1443 871 1008 1002 1003 1009
1444 1127 1006 1002 1003 1009
1445 775 342 343 339 345
1446 775 342 343 339 344
1447 1132 339 343 342 346
1448 525 811 807 808 815
1449 570 808 807 811 810
1450 854 812 807 808 815
1451 854 813 807 808 815
1452 871 812 807 808 814
1453 871 813 807 808 814
1454 1127 811 807 808 814
1455 525 941 937 938 945
1456 570 938 937 941 940
1457 854 942 937 938 945
1458 854 943 937 938 945
1459 871 942 937 938 944
1460 871 943 937 938 944
1461 1127 941 937 938 944
1462 570 810 814 808 815
1463 1132 808 814 810 811
1464 525 109 105 106 113
1465 570 106 105 109 108
1466 854 110 105 106 113
1467 854 111 105 106 113
1468 871 110 105 106 112
1469 871 111 105 106 112
1470 1127 109 105 106 112
1471 570 1057 1061 1055 1062
1472 1132 1055 1061 1057 1058
1473 570 1002 1003 1009 1005
1474 775 1004 1003 1009 1005
1475 854 1002 1003 1010 1012
1476 854 1002 1003 1010 1013
1477 854 1002 1003 1010 1014
1478 864 1004 1003 1002 1008
1479 864 1004 1003 1002 1007
1480 864 1004 1003 1010 1012
1481 864 1004 1003 1010 1013
1482 864 1004 1003 1010 1014
1483 871 1004 1003 1002 1006
1484 871 1009 1003 1010 1012
1485 871 1009 1003 1010 1013
1486 871 1009 1003 1010 1014
1487 570 105 106 112 108
1488 775 107 106 112 108
1489 854 105 106 113 115
1490 854 105 106 113 116
1491 854 105 106 113 117
1492 864 107 106 105 111
1493 864 107 106 105 110
1494 864 107 106 113 115
1495 864 107 106 113 116
1496 864 107 106 113 117
1497 871 107 106 105 109
1498 871 112 106 113 115
1499 871 112 106 113 116
1500 871 112 106 113 117
1501 525 1084 1080 1081 1088
1502 570 1081 1080 1084 1083
1503 854 1085 1080 1081 1088
1504 854 1086 1080 1081 1088
1505 871 1085 1080 1081 1087
1506 871 1086 1080 1081 1087
1507 1127 1084 1080 1081 1087
1508 570 846 847 853 849
1509 775 848 847 853 849
1510 854 846 847 854 856
1511 854 846 847 854 857
1512 854 846 847 854 858
1513 864 848 847 846 852
1514 864 848 847 846 851
1515 864 848 847 854 856
1516 864 848 847 854 857
1517 864 848 847 854 858
1518 871 848 847 846 850
1519 871 853 847 854 856
1520 871 853 847 854 857
1521 871 853 847 854 858
1522 775 1018 1019 1015 1021
1523 775 1018 1019 1015 1020
1524 1132 1015 1019 1018 1022
1525 570 342 346 340 347
1526 1132 340 346 342 343
1527 775 485 486 482 488
1528 775 485 486 482 487
1529 1132 482 486 485 489
1530 525 850 846 847 854
1531 570 847 846 850 849
1532 854 851 846 847 854
1533 854 852 846 847 854
1534 871 851 846 847 853
1535 871 852 846 847 853
1536 1127 850 846 847 853
1537 525 343 339 340 347
1538 570 340 339 343 342
1539 854 344 339 340 347
1540 854 345 339 340 347
1541 871 344 339 340 346
1542 871 345 339 340 346
1543 1127 343 339 340 346
1544 570 940 944 938 945
1545 1132 938 944 940 941
1546 525 408 404 405 412
1547 570 405 404 408 407
1548 854 409 404 405 412
1549 854 410 404 405 412
1550 871 409 404 405 411
1551 871 410 404 405 411
1552 1127 408 404 405 411
1553 775 108 109 105 111
1554 775 108 109 105 110
1555 1132 105 109 108 112
1556 570 108 112 106 113
1557 1132 106 112 108 109
1558 570 69 73 67 74
1559 1132 67 73 69 70
1560 570 937 938 944 940
1561 775 939 938 944 940
1562 854 937 938 945 947
1563 854 937 938 945 948
1564 854 937 938 945 949
1565 864 939 938 937 943
1566 864 939 938 937 942
1567 864 939 938 945 947
1568 864 939 938 945 948
1569 864 939 938 945 949
1570 871 939 938 937 941
1571 871 944 938 945 947
1572 871 944 938 945 948
1573 871 944 938 945 949
1574 570 1080 1081 1087 1083
1575 775 1082 1081 1087 1083
1576 854 1080 1081 1088 1090
1577 854 1080 1081 1088 1091
1578 854 1080 1081 1088 1092
1579 864 1082 1081 1080 1086
1580 864 1082 1081 1080 1085
1581 864 1082 1081 1088 1090
1582 864 1082 1081 1088 1091
1583 864 1082 1081 1088 1092
1584 871 1082 1081 1080 1084
1585 871 1087 1081 1088 1090
1586 871 1087 1081 1088 1091
1587 871 1087 1081 1088 1092
1588 775 69 70 66 72
1589 775 69 70 66 71
1590 1132 66 70 69 73
1591 775 940 941 937 943
1592 775 940 941 937 942
1593 1132 937 941 940 944
1594 525 538 534 535 542
1595 570 535 534 538 537
1596 854 539 534 535 542
1597 854 540 534 535 542
1598 871 539 534 535 541
1599 871 540 534 535 541
1600 1127 538 534 535 541
1601 570 1005 1009 1003 1010
1602 1132 1003 1009 1005 1006
1603 775 1148 1149 1145 1151
1604 775 1148 1149 1145 1150
1605 1132 1145 1149 1148 1152
1606 570 183 184 190 186
1607 775 185 184 190 186
1608 854 183 184 191 193
1609 854 183 184 191 194
1610 854 183 184 191 195
1611 864 185 184 183 189
1612 864 185 184 183 188
1613 864 185 184 191 193
1614 864 185 184 191 194
1615 864 185 184 191 195
1616 871 185 184 183 187
1617 871 190 184 191 193
1618 871 190 184 191 194
1619 871 190 184 191 195
1620 570 1145 1146 1152 1148
1621 775 1147 1146 1152 1148
1622 854 1145 1146 1153 1155
1623 854 1145 1146 1153 1156
1624 854 1145 1146 1153 1157
1625 864 1147 1146 1145 1151
1626 864 1147 1146 1145 1150
1627 864 1147 1146 1153 1155
1628 864 1147 1146 1153 1156
1629 864 1147 1146 1153 1157
1630 871 1147 1146 1145 1149
1631 871 1152 1146 1153 1155
1632 871 1152 1146 1153 1156
1633 871 1152 1146 1153 1157
1634 570 742 743 749 745
1635 775 744 743 749 745
1636 854 742 743 750 752
1637 854 742 743 750 753
1638 854 742 743 750 754
1639 864 744 743 742 748
1640 864 744 743 742 747
1641 864 744 743 750 752
1642 864 744 743 750 753
1643 864 744 743 750 754
1644 871 744 743 742 746
1645 871 749 743 750 752
1646 871 749 743 750 753
1647 871 749 743 750 754
1648 775 1083 1084 1080 1086
1649 775 1083 1084 1080 1085
1650 1132 1080 1084 1083 1087
1651 525 44 40 41 48
1652 570 41 40 44 43
1653 854 45 40 41 48
1654 854 46 40 41 48
1655 871 45 40 41 47
1656 871 46 40 41 47
1657 1127 44 40 41 47
1658 570 1070 1074 1068 1075
1659 1132 1068 1074 1070 1071
1660 775 784 785 781 787
1661 775 784 785 781 786
1662 1132 781 785 784 788
1663 775 563 564 560 566
1664 775 563 564 560 565
1665 1132 560 564 563 567
1666 525 967 963 964 971
1667 570 964 963 967 966
1668 854 968 963 964 971
1669 854 969 963 964 971
1670 871 968 963 964 970
1671 871 969 963 964 970
1672 1127 967 963 964 970
1673 775 745 746 742 748
1674 775 745 746 742 747
1675 1132 742 746 745 749
1676 570 186 190 184 191
1677 1132 184 190 186 187
1678 570 576 580 574 581
1679 1132 574 580 576 577
1680 775 43 44 40 46
1681 775 43 44 40 45
1682 1132 40 44 43 47
1683 775 1226 1227 1223 1229
1684 775 1226 1227 1223 1228
1685 1132 1223 1227 1226 1230
1686 570 1223 1224 1230 1226
1687 775 1225 1224 1230 1226
1688 854 1223 1224 1231 1233
1689 854 1223 1224 1231 1234
1690 854 1223 1224 1231 1235
1691 864 1225 1224 1223 1229
1692 864 1225 1224 1223 1228
1693 864 1225 1224 1231 1233
1694 864 1225 1224 1231 1234
1695 864 1225 1224 1231 1235
1696 871 1225 1224 1223 1227
1697 871 1230 1224 1231 1233
1698 871 1230 1224 1231 1234
1699 871 1230 1224 1231 1235
1700 775 979 980 976 982
1701 775 979 980 976 981
1702 1132 976 980 979 983
1703 570 979 983 977 984
1704 1132 977 983 979 980
1705 525 1071 1067 1068 1075
1706 570 1068 1067 1071 1070
1707 854 1072 1067 1068 1075
1708 854 1073 1067 1068 1075
1709 871 1072 1067 1068 1074
1710 871 1073 1067 1068 1074
1711 1127 1071 1067 1068 1074
1712 570 573 574 580 576
1713 775 575 574 580 576
1714 854 573 574 581 583
1715 854 573 574 581 584
1716 854 573 574 581 585
1717 864 575 574 573 579
1718 864 575 574 573 578
1719 864 575 574 581 583
1720 864 575 574 581 584
1721 864 575 574 581 585
1722 871 575 574 573 577
1723 871 580 574 581 583
1724 871 580 574 581 584
1725 871 580 574 581 585
1726 570 784 788 782 789
1727 1132 782 788 784 785
1728 570 745 749 743 750
1729 1132 743 749 745 746
1730 570 1226 1230 1224 1231
1731 1132 1224 1230 1226 1227
1732 570 963 964 970 966
1733 775 965 964 970 966
1734 854 963 964 971 973
1735 854 963 964 971 974
1736 854 963 964 971 975
1737 864 965 964 963 969
1738 864 965 964 963 968
1739 864 965 964 971 973
1740 864 965 964 971 974
1741 864 965 964 971 975
1742 871 965 964 963 967
1743 871 970 964 971 973
1744 871 970 964 971 974
1745 871 970 964 971 975
1746 525 1227 1223 1224 1231
1747 570 1224 1223 1227 1226
1748 854 1228 1223 1224 1231
1749 854 1229 1223 1224 1231
1750 871 1228 1223 1224 1230
1751 871 1229 1223 1224 1230
1752 1127 1227 1223 1224 1230
1753 570 781 782 788 784
1754 775 783 782 788 784
1755 854 781 782 789 791
1756 854 781 782 789 792
1757 854 781 782 789 793
1758 864 783 782 781 787
1759 864 783 782 781 786
1760 864 783 782 789 791
1761 864 783 782 789 792
1762 864 783 782 789 793
1763 871 783 782 781 785
1764 871 788 782 789 791
1765 871 788 782 789 792
1766 871 788 782 789 793
1767 525 785 781 782 789
1768 570 782 781 785 784
1769 854 786 781 782 789
1770 854 787 781 782 789
1771 871 786 781 782 788
1772 871 787 781 782 788
1773 1127 785 781 782 788
1774 570 43 47 41 48
1775 1132 41 47 43 44
1776 570 40 41 47 43
1777 775 42 41 47 43
1778 854 40 41 48 50
1779 854 40 41 48 51
1780 854 40 41 48 52
1781 864 42 41 40 46
1782 864 42 41 40 45
1783 864 42 41 48 50
1784 864 42 41 48 51
1785 864 42 41 48 52
1786 871 42 41 40 44
1787 871 47 41 48 50
1788 871 47 41 48 51
1789 871 47 41 48 52
1790 775 186 187 183 189
1791 775 186 187 183 188
1792 1132 183 187 186 190
1793 525 577 573 574 581
1794 570 574 573 577 576
1795 854 578 573 574 581
1796 854 579 573 574 581
1797 871 578 573 574 580
1798 871 579 573 574 580
1799 1127 577 573 574 580
1800 525 187 183 184 191
1801 570 184 183 187 186
1802 854 188 183 184 191
1803 854 189 183 184 191
1804 871 188 183 184 190
1805 871 189 183 184 190
1806 1127 187 183 184 190
1807 775 56 57 53 59
1808 775 56 57 53 58
1809 1132 53 57 56 60
1810 525 1149 1145 1146 1153
1811 570 1146 1145 1149 1148
1812 854 1150 1145 1146 1153
1813 854 1151 1145 1146 1153
1814 871 1150 1145 1146 1152
1815 871 1151 1145 1146 1152
1816 1127 1149 1145 1146 1152
1817 525 759 755 756 763
1818 570 756 755 759 758
1819 854 760 755 756 763
1820 854 761 755 756 763
1821 871 760 755 756 762
1822 871 761 755 756 762
1823 1127 759 755 756 762
1824 775 1070 1071 1067 1073
1825 775 1070 1071 1067 1072
1826 1132 1067 1071 1070 1074
1827 570 612 613 619 615
1828 775 614 613 619 615
1829 854 612 613 620 622
1830 854 612 613 620 623
1831 854 612 613 620 624
1832 864 614 613 612 618
1833 864 614 613 612 617
1834 864 614 613 620 622
1835 864 614 613 620 623
1836 864 614 613 620 624
1837 871 614 613 612 616
1838 871 619 613 620 622
1839 871 619 613 620 623
1840 871 619 613 620 624
1841 525 746 742 743 750
1842 570 743 742 746 745
1843 854 747 742 743 750
1844 854 748 742 743 750
1845 871 747 742 743 749
1846 871 748 742 743 749
1847 1127 746 742 743 749
1848 570 1119 1120 1126 1122
1849 775 1121 1120 1126 1122
1850 854 1119 1120 1127 1129
1851 854 1119 1120 1127 1130
1852 854 1119 1120 1127 1131
1853 864 1121 1120 1119 1125
1854 864 1121 1120 1119 1124
1855 864 1121 1120 1127 1129
1856 864 1121 1120 1127 1130
1857 864 1121 1120 1127 1131
1858 871 1121 1120 1119 1123
1859 871 1126 1120 1127 1129
1860 871 1126 1120 1127 1130
1861 871 1126 1120 1127 1131
1862 525 1045 1041 1042 1049
1863 570 1042 1041 1045 1044
1864 854 1046 1041 1042 1049
1865 854 1047 1041 1042 1049
1866 871 1046 1041 1042 1048
1867 871 1047 1041 1042 1048
1868 1127 1045 1041 1042 1048
1869 570 1044 1048 1042 1049
1870 1132 1042 1048 1044 1045
1871 570 1067 1068 1074 1070
1872 775 1069 1068 1074 1070
1873 854 1067 1068 1075 1077
1874 854 1067 1068 1075 1078
1875 854 1067 1068 1075 1079
1876 864 1069 1068 1067 1073
1877 864 1069 1068 1067 1072
1878 864 1069 1068 1075 1077
1879 864 1069 1068 1075 1078
1880 864 1069 1068 1075 1079
1881 871 1069 1068 1067 1071
1882 871 1074 1068 1075 1077
1883 871 1074 1068 1075 1078
1884 871 1074 1068 1075 1079
1885 570 1041 1042 1048 1044
1886 775 1043 1042 1048 1044
1887 854 1041 1042 1049 1051
1888 854 1041 1042 1049 1052
1889 854 1041 1042 1049 1053
1890 864 1043 1042 1041 1047
1891 864 1043 1042 1041 1046
1892 864 1043 1042 1049 1051
1893 864 1043 1042 1049 1052
1894 864 1043 1042 1049 1053
1895 871 1043 1042 1041 1045
1896 871 1048 1042 1049 1051
1897 871 1048 1042 1049 1052
1898 871 1048 1042 1049 1053
1899 570 53 54 60 56
1900 775 55 54 60 56
1901 854 53 54 61 63
1902 854 53 54 61 64
1903 854 53 54 61 65
1904 864 55 54 53 59
1905 864 55 54 53 58
1906 864 55 54 61 63
1907 864 55 54 61 64
1908 864 55 54 61 65
1909 871 55 54 53 57
1910 871 60 54 61 63
1911 871 60 54 61 64
1912 871 60 54 61 65
1913 775 758 759 755 761
1914 775 758 759 755 760
1915 1132 755 759 758 762
1916 775 550 551 547 553
1917 775 550 551 547 552
1918 1132 547 551 550 554
1919 525 57 53 54 61
1920 570 54 53 57 56
1921 854 58 53 54 61
1922 854 59 53 54 61
1923 871 58 53 54 60
1924 871 59 53 54 60
1925 1127 57 53 54 60
1926 570 1122 1126 1120 1127
1927 1132 1120 1126 1122 1123
1928 775 1265 1266 1262 1268
1929 775 1265 1266 1262 1267
1930 1132 1262 1266 1265 1269
1931 525 551 547 548 555
1932 570 548 547 551 550
1933 854 552 547 548 555
1934 854 553 547 548 555
1935 871 552 547 548 554
1936 871 553 547 548 554
1937 1127 551 547 548 554
1938 775 1122 1123 1119 1125
1939 775 1122 1123 1119 1124
1940 1132 1119 1123 1122 1126
1941 775 459 460 456 462
1942 775 459 460 456 461
1943 1132 456 460 459 463
1944 570 615 619 613 620
1945 1132 613 619 615 616
1946 570 550 554 548 555
1947 1132 548 554 550 551
1948 775 1044 1045 1041 1047
1949 775 1044 1045 1041 1046
1950 1132 1041 1045 1044 1048
1951 570 56 60 54 61
1952 1132 54 60 56 57
1953 570 225 229 223 230
1954 1132 223 229 225 226
1955 570 586 587 593 589
1956 775 588 587 593 589
1957 854 586 587 594 596
1958 854 586 587 594 597
1959 854 586 587 594 598
1960 864 588 587 586 592
1961 864 588 587 586 591
1962 864 588 587 594 596
1963 864 588 587 594 597
1964 864 588 587 594 598
1965 871 588 587 586 590
1966 871 593 587 594 596
1967 871 593 587 594 597
1968 871 593 587 594 598
1969 525 369 365 366 373
1970 570 366 365 369 368
1971 854 370 365 366 373
1972 854 371 365 366 373
1973 871 370 365 366 372
1974 871 371 365 366 372
1975 1127 369 365 366 372
1976 570 378 379 385 381
1977 775 380 379 385 381
1978 854 378 379 386 388
1979 854 378 379 386 389
1980 854 378 379 386 390
1981 864 380 379 378 384
1982 864 380 379 378 383
1983 864 380 379 386 388
1984 864 380 379 386 389
1985 864 380 379 386 390
1986 871 380 379 378 382
1987 871 385 379 386 388
1988 871 385 379 386 389
1989 871 385 379 386 390
1990 525 447 443 444 451
1991 570 444 443 447 446
1992 854 448 443 444 451
1993 854 449 443 444 451
1994 871 448 443 444 450
1995 871 449 443 444 450
1996 1127 447 443 444 450
1997 570 953 957 951 958
1998 1132 951 957 953 954
1999 775 927 928 924 930
2000 775 927 928 924 929
2001 1132 924 928 927 931
2002 525 954 950 951 958
2003 570 951 950 954 953
2004 854 955 950 951 958
2005 854 956 950 951 958
2006 871 955 950 951 957
2007 871 956 950 951 957
2008 1127 954 950 951 957
2009 775 953 954 950 956
2010 775 953 954 950 955
2011 1132 950 954 953 957
2012 525 694 690 691 698
2013 570 691 690 694 693
2014 854 695 690 691 698
2015 854 696 690 691 698
2016 871 695 690 691 697
2017 871 696 690 691 697
2018 1127 694 690 691 697
2019 775 693 694 690 696
2020 775 693 694 690 695
2021 1132 690 694 693 697
2022 570 446 450 444 451
2023 1132 444 450 446 447
2024 525 226 222 223 230
2025 570 223 222 226 225
2026 854 227 222 223 230
2027 854 228 222 223 230
2028 871 227 222 223 229
2029 871 228 222 223 229
2030 1127 226 222 223 229
2031 775 225 226 222 228
2032 775 225 226 222 227
2033 1132 222 226 225 229
2034 570 365 366 372 368
2035 775 367 366 372 368
2036 854 365 366 373 375
2037 854 365 366 373 376
2038 854 365 366 373 377
2039 864 367 366 365 371
2040 864 367 366 365 370
2041 864 367 366 373 375
2042 864 367 366 373 376
2043 864 367 366 373 377
2044 871 367 366 365 369
2045 871 372 366 373 375
2046 871 372 366 373 376
2047 871 372 366 373 377
2048 570 599 600 606 602
2049 775 601 600 606 602
2050 854 599 600 607 609
2051 854 599 600 607 610
2052 854 599 600 607 611
2053 864 601 600 599 605
2054 864 601 600 599 604
2055 864 601 600 607 609
2056 864 601 600 607 610
2057 864 601 600 607 611
2058 871 601 600 599 603
2059 871 606 600 607 609
2060 871 606 600 607 610
2061 871 606 600 607 611
2062 570 222 223 229 225
2063 775 224 223 229 225
2064 854 222 223 230 232
2065 854 222 223 230 233
2066 854 222 223 230 234
2067 864 224 223 222 228
2068 864 224 223 222 227
2069 864 224 223 230 232
2070 864 224 223 230 233
2071 864 224 223 230 234
2072 871 224 223 222 226
2073 871 229 223 230 232
2074 871 229 223 230 233
2075 871 229 223 230 234
2076 775 862 863 859 865
2077 775 862 863 859 864
2078 1132 859 863 862 866
2079 570 394 398 392 399
2080 1132 392 398 394 395
2081 570 602 606 600 607
2082 1132 600 606 602 603
2083 570 927 931 925 932
2084 1132 925 931 927 928
2085 570 248 249 255 251
2086 775 250 249 255 251
2087 854 248 249 256 258
2088 854 248 249 256 259
2089 854 248 249 256 260
2090 864 250 249 248 254
2091 864 250 249 248 253
2092 864 250 249 256 258
2093 864 250 249 256 259
2094 864 250 249 256 260
2095 871 250 249 248 252
2096 871 255 249 256 258
2097 871 255 249 256 259
2098 871 255 249 256 260
2099 570 300 301 307 303
2100 775 302 301 307 303
2101 854 300 301 308 310
2102 854 300 301 308 311
2103 854 300 301 308 312
2104 864 302 301 300 306
2105 864 302 301 300 305
2106 864 302 301 308 310
2107 864 302 301 308 311
2108 864 302 301 308 312
2109 871 302 301 300 304
2110 871 307 301 308 310
2111 871 307 301 308 311
2112 871 307 301 308 312
2113 525 603 599 600 607
2114 570 600 599 603 602
2115 854 604 599 600 607
2116 854 605 599 600 607
2117 871 604 599 600 606
2118 871 605 599 600 606
2119 1127 603 599 600 606
2120 570 1148 1152 1146 1153
2121 1132 1146 1152 1148 1149
2122 525 304 300 301 308
2123 570 301 300 304 303
2124 854 305 300 301 308
2125 854 306 300 301 308
2126 871 305 300 301 307
2127 871 306 300 301 307
2128 1127 304 300 301 307
2129 775 875 876 872 878
2130 775 875 876 872 877
2131 1132 872 876 875 879
2132 570 391 392 398 394
2133 775 393 392 398 394
2134 854 391 392 399 401
2135 854 391 392 399 402
2136 854 391 392 399 403
2137 864 393 392 391 397
2138 864 393 392 391 396
2139 864 393 392 399 401
2140 864 393 392 399 402
2141 864 393 392 399 403
2142 871 393 392 391 395
2143 871 398 392 399 401
2144 871 398 392 399 402
2145 871 398 392 399 403
2146 570 950 951 957 953
2147 775 952 951 957 953
2148 854 950 951 958 960
2149 854 950 951 958 961
2150 854 950 951 958 962
2151 864 952 951 950 956
2152 864 952 951 950 955
2153 864 952 951 958 960
2154 864 952 951 958 961
2155 864 952 951 958 962
2156 871 952 951 950 954
2157 871 957 951 958 960
2158 871 957 951 958 961
2159 871 957 951 958 962
2160 570 693 697 691 698
2161 1132 691 697 693 694
2162 570 690 691 697 693
2163 775 692 691 697 693
2164 854 690 691 698 700
2165 854 690 691 698 701
2166 854 690 691 698 702
2167 864 692 691 690 696
2168 864 692 691 690 695
2169 864 692 691 698 700
2170 864 692 691 698 701
2171 864 692 691 698 702
2172 871 692 691 690 694
2173 871 697 691 698 700
2174 871 697 691 698 701
2175 871 697 691 698 702
2176 525 876 872 873 880
2177 570 873 872 876 875
2178 854 877 872 873 880
2179 854 878 872 873 880
2180 871 877 872 873 879
2181 871 878 872 873 879
2182 1127 876 872 873 879
2183 775 602 603 599 605
2184 775 602 603 599 604
2185 1132 599 603 602 606
2186 525 590 586 587 594
2187 570 587 586 590 589
2188 854 591 586 587 594
2189 854 592 586 587 594
2190 871 591 586 587 593
2191 871 592 586 587 593
2192 1127 590 586 587 593
2193 525 382 378 379 386
2194 570 379 378 382 381
2195 854 383 378 379 386
2196 854 384 378 379 386
2197 871 383 378 379 385
2198 871 384 378 379 385
2199 1127 382 378 379 385
2200 525 252 248 249 256
2201 570 249 248 252 251
2202 854 253 248 249 256
2203 854 254 248 249 256
2204 871 253 248 249 255
2205 871 254 248 249 255
2206 1127 252 248 249 255
2207 570 872 873 879 875
2208 775 874 873 879 875
2209 854 872 873 880 882
2210 854 872 873 880 883
2211 854 872 873 880 884
2212 864 874 873 872 878
2213 864 874 873 872 877
2214 864 874 873 880 882
2215 864 874 873 880 883
2216 864 874 873 880 884
2217 871 874 873 872 876
2218 871 879 873 880 882
2219 871 879 873 880 883
2220 871 879 873 880 884
2221 525 863 859 860 867
2222 570 860 859 863 862
2223 854 864 859 860 867
2224 854 865 859 860 867
2225 871 864 859 860 866
2226 871 865 859 860 866
2227 1127 863 859 860 866
2228 570 381 385 379 386
2229 1132 379 385 381 382
2230 570 251 255 249 256
2231 1132 249 255 251 252
2232 775 251 252 248 254
2233 775 251 252 248 253
2234 1132 248 252 251 255
2235 525 395 391 392 399
2236 570 392 391 395 394
2237 854 396 391 392 399
2238 854 397 391 392 399
2239 871 396 391 392 398
2240 871 397 391 392 398
2241 1127 395 391 392 398
2242 570 875 879 873 880
2243 1132 873 879 875 876
2244 570 443 444 450 446
2245 775 445 444 450 446
2246 854 443 444 451 453
2247 854 443 444 451 454
2248 854 443 444 451 455
2249 864 445 444 443 449
2250 864 445 444 443 448
2251 864 445 444 451 453
2252 864 445 444 451 454
2253 864 445 444 451 455
2254 871 445 444 443 447
2255 871 450 444 451 453
2256 871 450 444 451 454
2257 871 450 444 451 455
2258 775 303 304 300 306
2259 775 303 304 300 305
2260 1132 300 304 303 307
2261 570 303 307 301 308
2262 1132 301 307 303 304
2263 775 381 382 378 384
2264 775 381 382 378 383
2265 1132 378 382 381 385
2266 775 446 447 443 449
2267 775 446 447 443 448
2268 1132 443 447 446 450
2269 525 668 664 665 672
2270 570 665 664 668 667
2271 854 669 664 665 672
2272 854 670 664 665 672
2273 871 669 664 665 671
2274 871 670 664 665 671
2275 1127 668 664 665 671
2276 775 1057 1058 1054 1060
2277 775 1057 1058 1054 1059
2278 1132 1054 1058 1057 1061
2279 525 1058 1054 1055 1062
2280 570 1055 1054 1058 1057
2281 854 1059 1054 1055 1062
2282 854 1060 1054 1055 1062
2283 871 1059 1054 1055 1061
2284 871 1060 1054 1055 1061
2285 1127 1058 1054 1055 1061
2286 775 394 395 391 397
2287 775 394 395 391 396
2288 1132 391 395 394 398
2289 570 339 340 346 342
2290 775 341 340 346 342
2291 854 339 340 347 349
2292 854 339 340 347 350
2293 854 339 340 347 351
2294 864 341 340 339 345
2295 864 341 340 339 344
2296 864 341 340 347 349
2297 864 341 340 347 350
2298 864 341 340 347 351
2299 871 341 340 339 343
2300 871 346 340 347 349
2301 871 346 340 347 350
2302 871 346 340 347 351
2303 775 576 577 573 579
2304 775 576 577 573 578
2305 1132 573 577 576 580
2306 570 898 899 905 901
2307 775 900 899 905 901
2308 854 898 899 906 908
2309 854 898 899 906 909
2310 854 898 899 906 910
2311 864 900 899 898 904
2312 864 900 899 898 903
2313 864 900 899 906 908
2314 864 900 899 906 909
2315 864 900 899 906 910
2316 871 900 899 898 902
2317 871 905 899 906 908
2318 871 905 899 906 909
2319 871 905 899 906 910
2320 525 993 989 990 997
2321 570 990 989 993 992
2322 854 994 989 990 997
2323 854 995 989 990 997
2324 871 994 989 990 996
2325 871 995 989 990 996
2326 1127 993 989 990 996
2327 525 720 716 717 724
2328 570 717 716 720 719
2329 854 721 716 717 724
2330 854 722 716 717 724
2331 871 721 716 717 723
2332 871 722 716 717 723
2333 1127 720 716 717 723
2334 775 316 317 313 319
2335 775 316 317 313 318
2336 1132 313 317 316 320
2337 525 1123 1119 1120 1127
2338 570 1120 1119 1123 1122
2339 854 1124 1119 1120 1127
2340 854 1125 1119 1120 1127
2341 871 1124 1119 1120 1126
2342 871 1125 1119 1120 1126
2343 1127 1123 1119 1120 1126
2344 570 563 567 561 568
2345 1132 561 567 563 564
2346 775 589 590 586 592
2347 775 589 590 586 591
2348 1132 586 590 589 593
2349 525 525 521 522 529
2350 570 522 521 525 524
2351 854 526 521 522 529
2352 854 527 521 522 529
2353 871 526 521 522 528
2354 871 527 521 522 528
2355 1127 525 521 522 528
2356 570 1236 1237 1243 1239
2357 775 1238 1237 1243 1239
2358 854 1236 1237 1244 1246
2359 854 1236 1237 1244 1247
2360 854 1236 1237 1244 1248
2361 864 1238 1237 1236 1242
2362 864 1238 1237 1236 1241
2363 864 1238 1237 1244 1246
2364 864 1238 1237 1244 1247
2365 864 1238 1237 1244 1248
2366 871 1238 1237 1236 1240
2367 871 1243 1237 1244 1246
2368 871 1243 1237 1244 1247
2369 871 1243 1237 1244 1248
2370 775 1239 1240 1236 1242
2371 775 1239 1240 1236 1241
2372 1132 1236 1240 1239 1243
2373 570 1262 1263 1269 1265
2374 775 1264 1263 1269 1265
2375 854 1262 1263 1270 1272
2376 854 1262 1263 1270 1273
2377 854 1262 1263 1270 1274
2378 864 1264 1263 1262 1268
2379 864 1264 1263 1262 1267
2380 864 1264 1263 1270 1272
2381 864 1264 1263 1270 1273
2382 864 1264 1263 1270 1274
2383 871 1264 1263 1262 1266
2384 871 1269 1263 1270 1272
2385 871 1269 1263 1270 1273
2386 871 1269 1263 1270 1274
2387 525 902 898 899 906
2388 570 899 898 902 901
2389 854 903 898 899 906
2390 854 904 898 899 906
2391 871 903 898 899 905
2392 871 904 898 899 905
2393 1127 902 898 899 905
2394 570 4 8 2 9
2395 1132 2 8 4 5
2396 570 1 2 8 4
2397 775 3 2 8 4
2398 854 1 2 9 11
2399 854 1 2 9 12
2400 854 1 2 9 13
2401 864 3 2 1 7
2402 864 3 2 1 6
2403 864 3 2 9 11
2404 864 3 2 9 12
2405 864 3 2 9 13
2406 871 3 2 1 5
2407 871 8 2 9 11
2408 871 8 2 9 12
2409 871 8 2 9 13
2410 570 313 314 320 316
2411 775 315 314 320 316
2412 854 313 314 321 323
2413 854 313 314 321 324
2414 854 313 314 321 325
2415 864 315 314 313 319
2416 864 315 314 313 318
2417 864 315 314 321 323
2418 864 315 314 321 324
2419 864 315 314 321 325
2420 871 315 314 313 317
2421 871 320 314 321 323
2422 871 320 314 321 324
2423 871 320 314 321 325
2424 570 1184 1185 1191 1187
2425 775 1186 1185 1191 1187
2426 854 1184 1185 1192 1194
2427 854 1184 1185 1192 1195
2428 854 1184 1185 1192 1196
2429 864 1186 1185 1184 1190
2430 864 1186 1185 1184 1189
2431 864 1186 1185 1192 1194
2432 864 1186 1185 1192 1195
2433 864 1186 1185 1192 1196
2434 871 1186 1185 1184 1188
2435 871 1191 1185 1192 1194
2436 871 1191 1185 1192 1195
2437 871 1191 1185 1192 1196
2438 570 966 970 964 971
2439 1132 964 970 966 967
2440 570 521 522 528 524
2441 775 523 522 528 524
2442 854 521 522 529 531
2443 854 521 522 529 532
2444 854 521 522 529 533
2445 864 523 522 521 527
2446 864 523 522 521 526
2447 864 523 522 529 531
2448 864 523 522 529 532
2449 864 523 522 529 533
2450 871 523 522 521 525
2451 871 528 522 529 531
2452 871 528 522 529 532
2453 871 528 522 529 533
2454 775 992 993 989 995
2455 775 992 993 989 994
2456 1132 989 993 992 996
2457 570 316 320 314 321
2458 1132 314 320 316 317
2459 570 901 905 899 906
2460 1132 899 905 901 902
2461 775 706 707 703 709
2462 775 706 707 703 708
2463 1132 703 707 706 710
2464 525 1201 1197 1198 1205
2465 570 1198 1197 1201 1200
2466 854 1202 1197 1198 1205
2467 854 1203 1197 1198 1205
2468 871 1202 1197 1198 1204
2469 871 1203 1197 1198 1204
2470 1127 1201 1197 1198 1204
2471 525 616 612 613 620
2472 570 613 612 616 615
2473 854 617 612 613 620
2474 854 618 612 613 620
2475 871 617 612 613 619
2476 871 618 612 613 619
2477 1127 616 612 613 619
2478 525 317 313 314 321
2479 570 314 313 317 316
2480 854 318 313 314 321
2481 854 319 313 314 321
2482 871 318 313 314 320
2483 871 319 313 314 320
2484 1127 317 313 314 320
2485 525 1266 1262 1263 1270
2486 570 1263 1262 1266 1265
2487 854 1267 1262 1263 1270
2488 854 1268 1262 1263 1270
2489 871 1267 1262 1263 1269
2490 871 1268 1262 1263 1269
2491 1127 1266 1262 1263 1269
2492 775 615 616 612 618
2493 775 615 616 612 617
2494 1132 612 616 615 619
2495 570 524 528 522 529
2496 1132 522 528 524 525
2497 570 589 593 587 594
2498 1132 587 593 589 590
2499 775 966 967 963 969
2500 775 966 967 963 968
2501 1132 963 967 966 970
2502 570 719 723 717 724
2503 1132 717 723 719 720
2504 570 1197 1198 1204 1200
2505 775 1199 1198 1204 1200
2506 854 1197 1198 1205 1207
2507 854 1197 1198 1205 1208
2508 854 1197 1198 1205 1209
2509 864 1199 1198 1197 1203
2510 864 1199 1198 1197 1202
2511 864 1199 1198 1205 1207
2512 864 1199 1198 1205 1208
2513 864 1199 1198 1205 1209
2514 871 1199 1198 1197 1201
2515 871 1204 1198 1205 1207
2516 871 1204 1198 1205 1208
2517 871 1204 1198 1205 1209
2518 570 238 242 236 243
2519 1132 236 242 238 239
2520 775 719 720 716 722
2521 775 719 720 716 721
2522 1132 716 720 719 723
2523 525 1240 1236 1237 1244
2524 570 1237 1236 1240 1239
2525 854 1241 1236 1237 1244
2526 854 1242 1236 1237 1244
2527 871 1241 1236 1237 1243
2528 871 1242 1236 1237 1243
2529 1127 1240 1236 1237 1243
2530 570 992 996 990 997
2531 1132 990 996 992 993
2532 775 1187 1188 1184 1190
2533 775 1187 1188 1184 1189
2534 1132 1184 1188 1187 1191
2535 570 716 717 723 719
2536 775 718 717 723 719
2537 854 716 717 724 726
2538 854 716 717 724 727
2539 854 716 717 724 728
2540 864 718 717 716 722
2541 864 718 717 716 721
2542 864 718 717 724 726
2543 864 718 717 724 727
2544 864 718 717 724 728
2545 871 718 717 716 720
2546 871 723 717 724 726
2547 871 723 717 724 727
2548 871 723 717 724 728
2549 775 901 902 898 904
2550 775 901 902 898 903
2551 1132 898 902 901 905
2552 775 524 525 521 527
2553 775 524 525 521 526
2554 1132 521 525 524 528
2555 570 1239 1243 1237 1244
2556 1132 1237 1243 1239 1240
2557 570 989 990 996 992
2558 775 991 990 996 992
2559 854 989 990 997 999
2560 854 989 990 997 1000
2561 854 989 990 997 1001
2562 864 991 990 989 995
2563 864 991 990 989 994
2564 864 991 990 997 999
2565 864 991 990 997 1000
2566 864 991 990 997 1001
2567 871 991 990 989 993
2568 871 996 990 997 999
2569 871 996 990 997 1000
2570 871 996 990 997 1001
2571 570 235 236 242 238
2572 775 237 236 242 238
2573 854 235 236 243 245
2574 854 235 236 243 246
2575 854 235 236 243 247
2576 864 237 236 235 241
2577 864 237 236 235 240
2578 864 237 236 243 245
2579 864 237 236 243 246
2580 864 237 236 243 247
2581 871 237 236 235 239
2582 871 242 236 243 245
2583 871 242 236 243 246
2584 871 242 236 243 247
2585 570 1187 1191 1185 1192
2586 1132 1185 1191 1187 1188
2587 525 1188 1184 1185 1192
2588 570 1185 1184 1188 1187
2589 854 1189 1184 1185 1192
2590 854 1190 1184 1185 1192
2591 871 1189 1184 1185 1191
2592 871 1190 1184 1185 1191
2593 1127 1188 1184 1185 1191
2594 525 707 703 704 711
2595 570 704 703 707 706
2596 854 708 703 704 711
2597 854 709 703 704 711
2598 871 708 703 704 710
2599 871 709 703 704 710
2600 1127 707 703 704 710
